ITEM: TIMESTEP
6000
ITEM: NUMBER OF ATOMS
450
ITEM: BOX BOUNDS pp pp pp
-9.5948698713405278e-01 1.7884486987134032e+01
-9.5948698713405278e-01 1.7884486987134032e+01
-9.5948698713405278e-01 1.7884486987134032e+01
ITEM: ATOMS id type element x y z
1 2 C 12.2891 5.91226 3.78017
2 2 C 11.7222 6.4668 2.52305
3 4 O 11.2495 7.82395 2.92372
4 1 H 12.5365 4.89052 3.64588
5 1 H 13.215 6.39739 4.00813
6 1 H 11.6158 6.02925 4.62863
7 1 H 10.8624 5.95355 2.12552
8 1 H 12.4868 6.51205 1.72923
9 1 H 10.6288 8.07534 2.24078
10 2 C 12.5108 12.6013 15.905
11 2 C 13.2368 13.1371 17.1366
12 4 O 13.1058 12.4032 -0.454087
13 1 H 11.4729 12.3167 16.1574
14 1 H 12.4103 13.3854 15.1833
15 1 H 12.9066 11.7168 15.4451
16 1 H 12.8363 14.0877 17.3765
17 1 H 14.2997 13.3435 16.9065
18 1 H 13.8991 11.892 -0.257346
19 2 C 14.6557 0.562048 2.44043
20 2 C 13.6892 0.401931 3.57128
21 4 O 12.6823 1.40595 3.63114
22 1 H 15.1532 1.5297 2.48544
23 1 H 15.3782 -0.220216 2.62649
24 1 H 14.1708 0.531144 1.48997
25 1 H 14.1394 0.339162 4.58533
26 1 H 13.25 -0.57436 3.32346
27 1 H 11.8407 0.973834 3.60168
28 2 C 16.645 8.12873 9.81186
29 2 C 16.8713 9.60773 9.51268
30 4 O 16.4083 9.90571 8.17716
31 1 H 17.306 7.63429 9.09777
32 1 H 16.9326 7.85357 10.8503
33 1 H 15.6098 7.88959 9.74785
34 1 H -0.896529 9.87169 9.59389
35 1 H 16.3158 10.1455 10.2602
36 1 H 17.1404 10.0502 7.56956
37 2 C 3.34214 1.2067 10.124
38 2 C 3.75141 1.94119 11.3528
39 4 O 3.5409 3.11477 11.5828
40 1 H 4.10763 0.551825 9.72048
41 1 H 2.42623 0.677699 10.4538
42 1 H 3.13659 1.93408 9.392
43 1 H 4.39155 1.40625 12.0856
44 1 H 17.1318 15.8263 15.8493
45 1 H 8.2305 7.49994 9.19244
46 2 C 9.22482 13.938 5.39086
47 2 C 8.55115 14.491 6.63767
48 4 O 8.94702 13.7975 7.8304
49 1 H 8.80072 14.3595 4.4781
50 1 H 10.3016 14.0499 5.4578
51 1 H 9.0714 12.8633 5.42763
52 1 H 7.47327 14.566 6.48868
53 1 H 8.92544 15.499 6.82214
54 1 H 8.6491 12.892 7.87861
55 2 C 16.9243 3.15501 14.0916
56 2 C 15.8976 3.96331 13.16
57 4 O 14.8245 4.43411 13.8333
58 1 H 16.1831 2.36242 14.3565
59 1 H 17.6513 2.68055 13.5071
60 1 H 17.3812 3.65757 14.9606
61 1 H 15.6155 3.15624 12.4042
62 1 H 16.3598 4.77802 12.6373
63 1 H 14.2838 3.70446 14.0546
64 2 C 10.69 10.9833 11.1606
65 2 C 9.69898 9.86965 11.5039
66 4 O 9.53057 8.84367 10.511
67 1 H 10.4331 11.5284 10.2483
68 1 H 10.7463 11.6909 11.9672
69 1 H 11.6775 10.4991 10.9503
70 1 H 8.72211 10.3108 11.7042
71 1 H 10.0361 9.41704 12.4282
72 1 H 10.2902 8.80337 9.93328
73 2 C 5.39699 3.70141 8.89346
74 2 C 5.65376 4.85234 7.95335
75 4 O 5.50645 6.12412 8.60466
76 1 H 4.52802 3.91179 9.51066
77 1 H 5.32057 2.77043 8.34738
78 1 H 6.26751 3.53932 9.54559
79 1 H 4.85569 4.88632 7.21022
80 1 H 6.61781 4.7776 7.45271
81 1 H 5.75658 5.97272 9.52111
82 2 C 3.83167 10.8077 12.3309
83 2 C 3.40992 9.99608 13.6341
84 4 O 2.16746 10.5838 14.0664
85 1 H 3.60988 10.2663 11.4318
86 1 H 3.29875 11.7628 12.4034
87 1 H 4.90024 11.0014 12.1997
88 1 H 4.10344 10.1853 14.4747
89 1 H 3.31927 8.95716 13.4219
90 1 H 1.74141 10.0604 14.7659
91 2 C 10.9219 2.86994 15.1276
92 2 C 11.9342 3.21741 13.8599
93 4 O 13.0323 2.23824 13.6883
94 1 H 10.1558 3.61677 15.2547
95 1 H 10.478 1.80913 15.1369
96 1 H 11.5389 2.6936 15.9912
97 1 H 12.3431 4.24303 14.087
98 1 H 11.2418 3.26566 13.0082
99 1 H 12.834 1.48167 14.2587
100 2 C 6.29629 14.5833 10.8068
101 2 C 6.87065 13.4683 11.6592
102 4 O 8.2563 13.6958 12.0026
103 1 H 6.93715 14.6894 9.90308
104 1 H 5.27078 14.2621 10.5028
105 1 H 6.29754 15.513 11.3912
106 1 H 6.84832 12.5329 11.0737
107 1 H 6.38422 13.2753 12.5857
108 1 H 8.83229 13.2511 11.4011
109 2 C 3.91493 17.0484 6.92692
110 2 C 5.01015 16.273 6.2517
111 4 O 4.92323 14.8713 6.36673
112 1 H 2.99132 16.8004 6.434
113 1 H 3.91031 16.7806 7.96459
114 1 H 4.01703 -0.700375 6.91925
115 1 H 5.94142 16.6721 6.72032
116 1 H 4.95287 16.5438 5.21617
117 1 H 4.11828 14.6126 5.90492
118 2 C 1.57254 7.88888 8.1887
119 2 C 2.3316 7.87499 9.53298
120 4 O 1.46127 7.78671 10.6472
121 1 H 0.813235 8.6268 8.30963
122 1 H 2.25592 8.09853 7.40646
123 1 H 1.03465 6.96376 8.04123
124 1 H 2.98833 8.7557 9.65467
125 1 H 3.00359 6.97926 9.55638
126 1 H 0.964683 8.61453 10.7033
127 2 C 7.14993 17.727 15.536
128 2 C 6.05205 17.4442 14.52
129 4 O 6.4173 16.4323 13.5944
130 1 H 6.8462 -0.356783 16.3019
131 1 H 7.41972 16.8379 16.0531
132 1 H 8.05107 -0.758709 15.0193
133 1 H 5.70811 -0.494086 13.9703
134 1 H 5.14507 17.0579 15.0498
135 1 H 6.75159 16.8588 12.791
136 2 C 7.88029 11.1933 2.76081
137 2 C 9.31697 11.8686 2.58645
138 4 O 9.93496 11.3161 1.36249
139 1 H 7.91026 10.1377 3.00505
140 1 H 7.39702 11.6671 3.61085
141 1 H 7.26761 11.4303 1.89425
142 1 H 9.93562 11.6162 3.47896
143 1 H 9.38609 12.9049 2.38089
144 1 H 10.8698 11.2902 1.58845
145 2 C 8.47486 0.43071 3.715
146 2 C 9.59302 -0.230591 2.95317
147 4 O 10.6696 -0.308488 3.87959
148 1 H 7.96113 1.20721 3.15361
149 1 H 7.75149 -0.281816 4.07756
150 1 H 8.85569 0.875543 4.66443
151 1 H 9.94984 0.340647 2.09854
152 1 H 9.31796 17.6181 2.68773
153 1 H 10.9358 17.6301 4.15163
154 2 C 0.342203 0.841363 15.5371
155 2 C 1.35335 1.91731 15.3374
156 4 O 1.5167 2.20042 13.9214
157 1 H 0.451513 0.0662434 14.782
158 1 H 0.374831 0.324947 16.4912
159 1 H -0.63081 1.29399 15.3463
160 1 H 2.31569 1.65043 15.7739
161 1 H 1.02869 2.83812 15.8579
162 1 H 1.57975 3.16973 13.9237
163 2 C 16.6062 10.2493 4.74368
164 2 C 17.6019 11.2629 5.21632
165 4 O -0.360248 10.6357 6.13538
166 1 H 16.0239 9.87558 5.60516
167 1 H 15.8531 10.6169 4.0334
168 1 H 17.1192 9.34734 4.36095
169 1 H 17.0942 12.1469 5.67986
170 1 H -0.688534 11.519 4.34222
171 1 H 0.444955 11.1441 6.25365
172 2 C 12.325 8.96355 17.8617
173 2 C 11.3033 8.21608 16.9673
174 4 O 10.0493 7.89871 17.5524
175 1 H 12.0291 10.0354 -0.925003
176 1 H 12.1611 8.51977 -0.0125179
177 1 H 13.306 8.89673 17.4369
178 1 H 11.671 7.23808 16.813
179 1 H 11.2026 8.72096 16.0069
180 1 H 9.67456 8.7514 17.7968
181 2 C 0.588222 0.420146 6.6041
182 2 C 0.851986 1.89449 6.86004
183 4 O -0.401671 2.56478 7.06873
184 1 H 0.348387 0.298831 5.52177
185 1 H 1.51525 -0.183037 6.651
186 1 H -0.187771 -0.0254206 7.22405
187 1 H 1.41341 2.38126 6.04651
188 1 H 1.33557 1.9632 7.8525
189 1 H 17.7995 2.29867 6.40113
190 2 C 8.2851 17.7389 8.54758
191 2 C 7.79474 -0.27567 9.73177
192 4 O 8.16757 -0.557581 11.0755
193 1 H 7.80155 -0.675856 7.64165
194 1 H 9.33028 17.8769 8.3841
195 1 H 7.92623 16.7098 8.63339
196 1 H 6.68723 -0.311175 9.75804
197 1 H 8.08355 0.796807 9.57534
198 1 H 9.04054 17.8713 11.0566
199 2 C 11.9549 17.1342 11.4617
200 2 C 11.0294 16.0133 11.8883
201 4 O 9.82423 16.1995 11.1007
202 1 H 12.9858 16.9445 11.809
203 1 H 11.8768 17.2394 10.3839
204 1 H 11.5876 -0.733217 11.9105
205 1 H 10.7724 16.0137 12.9532
206 1 H 11.3942 15.0124 11.6144
207 1 H 9.10954 15.7221 11.5018
208 2 C 3.49789 10.225 2.53498
209 2 C 2.298 10.2577 3.45987
210 4 O 2.64018 10.6166 4.80286
211 1 H 3.83187 11.2135 2.20229
212 1 H 4.4178 9.85153 2.97308
213 1 H 3.21052 9.60784 1.66062
214 1 H 1.82704 9.29815 3.34967
215 1 H 1.56637 11.0223 3.13224
216 1 H 2.20683 10.0127 5.41656
217 2 C 15.0064 9.7692 14.5284
218 2 C 16.0255 8.69874 14.7257
219 4 O 15.4358 7.73754 15.5382
220 1 H 14.0562 9.2542 14.2258
221 1 H 14.8513 10.4129 15.3513
222 1 H 15.1742 10.4131 13.689
223 1 H 16.8585 9.15417 15.2433
224 1 H 16.3834 8.24578 13.7672
225 1 H 14.5991 7.50556 15.0951
226 2 C 14.6172 3.01401 7.01474
227 2 C 15.1975 1.50706 7.07249
228 4 O 16.1363 1.3056 6.01795
229 1 H 14.2803 3.20224 5.99621
230 1 H 13.8197 3.24908 7.75722
231 1 H 15.3291 3.81403 7.23069
232 1 H 14.3303 0.891209 6.85835
233 1 H 15.6193 1.22568 8.0235
234 1 H 15.7657 0.719844 5.37475
235 2 C 15.6603 16.7973 -0.219183
236 2 C 16.8554 16.553 17.6072
237 4 O 16.598 15.5526 16.6213
238 1 H 14.8182 17.0407 -0.919531
239 1 H 15.5102 15.897 0.39083
240 1 H 15.8764 17.6058 0.513699
241 1 H 17.6468 16.1959 -0.616996
242 1 H 17.1755 17.3928 17.0469
243 1 H 17.6714 4.20766 7.90311
244 2 C 11.8783 14.1736 2.54503
245 2 C 12.736 15.286 3.33942
246 4 O 11.9598 16.0923 4.16186
247 1 H 12.3949 13.7315 1.62996
248 1 H 11.779 13.3729 3.44712
249 1 H 10.8838 14.4746 2.37278
250 1 H 13.521 16.0487 2.90017
251 1 H 13.2418 14.6643 4.00173
252 1 H 11.7265 15.5799 4.93114
253 2 C 16.9991 6.24702 -0.712133
254 2 C -0.79099 5.79728 17.2037
255 4 O -0.862299 6.36597 15.978
256 1 H 15.9905 5.97305 17.7418
257 1 H 16.9266 5.67453 0.226888
258 1 H 17.0114 7.33341 -0.55485
259 1 H -0.799745 4.68062 17.1636
260 1 H 0.228617 6.11743 17.5709
261 1 H 17.1136 6.74445 15.7968
262 2 C 16.8905 17.0697 4.18839
263 2 C -0.624805 16.5254 4.70213
264 4 O 0.349568 16.7964 3.80695
265 1 H 17.1291 -0.723384 3.92084
266 1 H 16.4839 16.6079 3.30901
267 1 H 16.0562 16.9981 4.87219
268 1 H -0.717727 15.459 4.8927
269 1 H -0.421879 16.9876 5.65706
270 1 H 1.09904 16.2084 3.99309
271 2 C 12.5011 16.7085 16.2346
272 2 C 12.2399 -0.63306 16.0805
273 4 O 13.4712 0.0169504 15.8411
274 1 H 13.4771 16.5734 16.6887
275 1 H 11.7482 16.2245 16.8716
276 1 H 12.6006 16.2795 15.2693
277 1 H 11.6955 -0.246403 16.9477
278 1 H 11.584 -0.491564 15.2116
279 1 H 13.3821 0.913064 16.0375
280 2 C 9.78381 2.91641 7.40788
281 2 C 9.85061 4.23155 8.16567
282 4 O 8.74945 4.28672 9.0474
283 1 H 8.94097 2.90546 6.70956
284 1 H 10.6836 2.72486 6.84346
285 1 H 9.66849 2.1106 8.13063
286 1 H 9.80457 5.16517 7.55187
287 1 H 10.8274 4.30101 8.74076
288 1 H 9.04189 4.81607 9.79135
289 2 C 7.16128 6.08041 11.7908
290 2 C 8.61782 5.86867 12.2069
291 4 O 9.37543 5.91819 11.0281
292 1 H 6.62764 5.21664 11.4071
293 1 H 6.58347 6.38819 12.6486
294 1 H 7.00447 6.85503 11.048
295 1 H 8.85007 4.93338 12.6594
296 1 H 8.90433 6.63387 12.9058
297 1 H 9.44209 6.85706 10.7652
298 2 C 13.5445 11.3685 5.96643
299 2 C 12.1465 11.6964 5.54629
300 4 O 11.2548 10.8268 6.25684
301 1 H 14.3107 12.0738 5.61769
302 1 H 13.5059 11.4105 7.06224
303 1 H 13.7401 10.3569 5.66762
304 1 H 11.9625 11.7036 4.47083
305 1 H 11.888 12.7105 5.8967
306 1 H 11.4128 9.92432 5.91122
307 2 C 12.302 6.48127 12.427
308 2 C 12.0628 7.20981 13.7247
309 4 O 13.257 6.77904 14.5245
310 1 H 12.6544 5.49494 12.6245
311 1 H 11.4376 6.42492 11.7985
312 1 H 13.06 6.98657 11.8555
313 1 H 11.2122 6.90309 14.3091
314 1 H 12.0463 8.315 13.6361
315 1 H 13.5935 6.01882 14.0599
316 2 C 4.37473 10.8696 8.07816
317 2 C 4.89566 11.8985 7.10406
318 4 O 6.04163 12.557 7.68218
319 1 H 3.59873 10.2787 7.57705
320 1 H 5.18243 10.219 8.41889
321 1 H 3.82181 11.2769 8.93035
322 1 H 4.07959 12.5888 6.82958
323 1 H 5.25587 11.342 6.2126
324 1 H 6.02646 13.4746 7.36871
325 2 C 17.4259 -0.560834 11.0744
326 2 C -0.71268 0.207915 12.1721
327 4 O 0.36211 0.961946 11.6168
328 1 H -0.79286 17.585 10.5545
329 1 H 16.5065 -0.920766 11.5616
330 1 H 17.1435 0.251331 10.3989
331 1 H -0.319734 -0.49855 12.9226
332 1 H 17.3938 0.810294 12.6755
333 1 H 0.804792 1.46048 12.2954
334 2 C 3.24258 6.19272 12.9158
335 2 C 3.01299 5.78449 14.3267
336 4 O 1.88655 4.98638 14.6259
337 1 H 4.17251 6.73414 12.8824
338 1 H 3.36888 5.33664 12.2323
339 1 H 2.4501 6.86272 12.6367
340 1 H 2.99995 6.69995 14.9671
341 1 H 3.844 5.16673 14.7083
342 1 H 1.09158 5.33365 14.2437
343 2 C 6.42452 13.1603 16.613
344 2 C 5.26312 13.8936 16.0111
345 4 O 4.30757 12.8716 15.6323
346 1 H 7.17909 13.9719 17.0226
347 1 H 6.1705 12.405 17.4769
348 1 H 6.90894 12.5685 15.836
349 1 H 5.67415 14.4029 15.1778
350 1 H 4.68312 14.5928 16.6132
351 1 H 3.41066 13.172 15.4789
352 2 C 7.29779 2.62226 13.1042
353 2 C 6.65191 2.65529 14.4798
354 4 O 6.53028 3.98689 15.0112
355 1 H 8.35005 2.87746 13.1764
356 1 H 7.32204 1.60131 12.7374
357 1 H 6.72915 3.25467 12.4033
358 1 H 7.22805 2.00377 15.1761
359 1 H 5.65321 2.23121 14.3727
360 1 H 5.60988 4.19305 15.1996
361 2 C 12.0768 15.9263 7.782
362 2 C 12.7671 15.0309 8.90123
363 4 O 12.7225 13.6627 8.60026
364 1 H 11.0958 15.469 7.55945
365 1 H 11.9811 16.9245 8.15342
366 1 H 12.6324 15.9546 6.84424
367 1 H 12.2511 15.2522 9.81866
368 1 H 13.8129 15.3138 9.00663
369 1 H 11.7541 13.4802 8.61922
370 2 C 12.4095 6.44958 8.71131
371 2 C 11.6248 7.41691 7.87184
372 4 O 11.6037 8.71415 8.45839
373 1 H 11.8017 6.15892 9.58056
374 1 H 12.7779 5.54511 8.16827
375 1 H 13.2709 7.02343 9.07369
376 1 H 10.5986 7.10643 7.63459
377 1 H 12.0812 7.47544 6.86483
378 1 H 11.5381 9.39051 7.77195
379 2 C 2.45491 5.27065 5.05915
380 2 C 2.07937 6.69976 4.91772
381 4 O 0.750427 7.03934 5.2967
382 1 H 1.70545 4.6156 4.59496
383 1 H 3.36031 5.10016 4.49471
384 1 H 2.53413 5.01463 6.13167
385 1 H 2.11092 7.01233 3.85713
386 1 H 2.75345 7.34872 5.43813
387 1 H 0.4522 6.44021 5.97153
388 2 C 15.0921 13.8595 12.8116
389 2 C 14.4704 13.7213 11.4484
390 4 O 13.4326 12.7302 11.359
391 1 H 15.6199 12.947 13.1558
392 1 H 15.8121 14.6773 12.8254
393 1 H 14.2669 14.0382 13.5048
394 1 H 15.2873 13.4863 10.7743
395 1 H 14.0424 14.7041 11.1665
396 1 H 13.1537 12.7755 10.4589
397 2 C 1.38095 11.9805 9.95367
398 2 C 0.413487 11.6734 11.0942
399 4 O 0.38307 10.3608 11.5658
400 1 H 1.28597 11.2418 9.15023
401 1 H 1.1287 12.9576 9.52635
402 1 H 2.3647 11.9653 10.3876
403 1 H -0.582311 11.818 10.7473
404 1 H 0.563086 12.4845 11.8337
405 1 H 1.09156 10.2328 12.246
406 2 C 0.829936 9.85543 -0.517805
407 2 C 1.94401 9.416 17.4145
408 4 O 1.48966 8.86368 16.1224
409 1 H -0.0414454 10.0582 17.6339
410 1 H 0.466761 9.13188 0.241096
411 1 H 1.06387 10.7818 0.0367353
412 1 H 2.54537 8.64068 -0.854298
413 1 H 2.63876 10.2119 17.043
414 1 H 0.785186 8.20959 16.1391
415 2 C 8.00226 7.9725 5.19353
416 2 C 9.06276 9.01464 5.33591
417 4 O 10.3995 8.47572 5.38431
418 1 H 8.1946 7.15765 5.88694
419 1 H 7.01323 8.39709 5.41548
420 1 H 7.93731 7.51086 4.21563
421 1 H 8.91317 9.54628 6.28247
422 1 H 9.11558 9.77146 4.546
423 1 H 10.5422 8.00758 4.53345
424 2 C 4.6767 13.85 3.23133
425 2 C 3.19318 14.2176 3.13275
426 4 O 2.71637 14.6477 4.41073
427 1 H 4.77151 12.8748 3.80788
428 1 H 4.92707 13.7501 2.18707
429 1 H 5.22743 14.6049 3.80462
430 1 H 2.66088 13.3183 2.68601
431 1 H 3.07251 15.0486 2.38655
432 1 H 2.10204 13.9506 4.64983
433 2 C 0.182314 4.40876 10.7469
434 2 C -0.856391 3.73242 9.82022
435 4 O 17.5111 4.54016 8.78019
436 1 H -0.131155 5.34331 11.1716
437 1 H 0.582286 3.75978 11.5145
438 1 H 1.1249 4.6982 10.1985
439 1 H 17.1049 3.37269 10.4195
440 1 H -0.285218 2.99186 9.29752
441 1 H 17.4638 5.51571 8.8968
442 2 C 14.991 2.52965 -0.164252
443 2 C 14.905 2.97799 17.2804
444 4 O 13.6225 2.70036 16.6469
445 1 H 15.2323 1.47448 -0.0616979
446 1 H 15.6993 3.10309 0.396182
447 1 H 14.0107 2.64106 0.320312
448 1 H 15.7067 2.5241 16.6953
449 1 H 15.0387 4.05237 17.2388
450 1 H 13.5942 3.32739 15.9186
ITEM: TIMESTEP
6100
ITEM: NUMBER OF ATOMS
450
ITEM: BOX BOUNDS pp pp pp
-9.7081461748555142e-01 1.7895814617485541e+01
-9.7081461748555142e-01 1.7895814617485541e+01
-9.7081461748555142e-01 1.7895814617485541e+01
ITEM: ATOMS id type element x y z
1 2 C 12.5893 5.91776 3.68842
2 2 C 11.6608 6.54905 2.66465
3 4 O 11.4325 7.90305 3.06813
4 1 H 13.2332 5.15755 3.19746
5 1 H 13.3312 6.6217 4.10191
6 1 H 12.0739 5.41767 4.52292
7 1 H 10.643 6.12378 2.62544
8 1 H 12.0994 6.52045 1.67958
9 1 H 11.4302 8.49152 2.33037
10 2 C 12.4775 12.5257 16.2038
11 2 C 13.4918 13.2268 17.068
12 4 O 13.4805 12.7066 -0.498833
13 1 H 11.4188 12.7522 16.4023
14 1 H 12.5674 12.8083 15.1477
15 1 H 12.5536 11.4522 16.3097
16 1 H 13.3492 14.3042 17.1345
17 1 H 14.4574 13.1392 16.6021
18 1 H 13.0125 11.8776 -0.409661
19 2 C 14.5524 0.439311 2.52086
20 2 C 13.7114 0.531768 3.76094
21 4 O 12.77 1.54174 3.51425
22 1 H 15.2317 1.29039 2.46138
23 1 H 15.1137 -0.50145 2.54339
24 1 H 13.7798 0.584795 1.73623
25 1 H 14.1825 0.702959 4.72181
26 1 H 13.2624 -0.464392 3.86743
27 1 H 11.9416 1.40973 4.00933
28 2 C 16.6302 8.18226 9.6962
29 2 C 16.7678 9.63827 9.21029
30 4 O 16.5784 9.87922 7.83507
31 1 H 17.3367 7.60051 9.10906
32 1 H 16.931 8.16874 10.7536
33 1 H 15.6155 7.74801 9.59932
34 1 H 17.763 10.0177 9.50243
35 1 H 16.0055 10.2061 9.76119
36 1 H 16.9973 9.2096 7.28109
37 2 C 3.22827 1.16511 10.3491
38 2 C 3.69233 2.14951 11.3452
39 4 O 3.11396 3.1914 11.5735
40 1 H 4.13547 0.565437 10.0807
41 1 H 2.39244 0.603062 10.7487
42 1 H 2.98746 1.62742 9.41695
43 1 H 4.63477 2.02614 11.8154
44 1 H 16.2428 15.6652 16.1224
45 1 H 9.25843 6.26941 8.54016
46 2 C 9.27914 13.9403 5.40595
47 2 C 8.95454 14.5635 6.79166
48 4 O 9.27412 13.7097 7.87793
49 1 H 9.20628 14.725 4.6456
50 1 H 10.2778 13.5188 5.4519
51 1 H 8.56447 13.154 5.16258
52 1 H 7.86261 14.7225 6.82973
53 1 H 9.37138 15.5616 6.89688
54 1 H 8.48592 13.1742 8.04803
55 2 C 16.8369 3.30112 14.0835
56 2 C 16.0087 4.10817 13.1854
57 4 O 14.8053 4.67178 13.922
58 1 H 16.3871 2.36318 14.4358
59 1 H 17.7121 3.10264 13.5312
60 1 H 17.151 3.94985 14.9533
61 1 H 15.6075 3.53478 12.3597
62 1 H 16.6184 4.91065 12.7096
63 1 H 14.2219 3.89111 13.754
64 2 C 10.636 10.7026 11.1537
65 2 C 9.65572 9.59077 11.4719
66 4 O 9.79906 8.47758 10.6291
67 1 H 10.6148 10.9302 10.0901
68 1 H 10.3729 11.6381 11.6585
69 1 H 11.6298 10.4071 11.4119
70 1 H 8.63705 9.95737 11.2794
71 1 H 9.63464 9.2745 12.5287
72 1 H 10.5746 8.62674 9.9947
73 2 C 5.35428 3.60866 8.62101
74 2 C 5.69924 4.88856 7.8508
75 4 O 5.50831 6.05727 8.62757
76 1 H 4.33086 3.66653 8.90532
77 1 H 5.7207 2.75123 8.05626
78 1 H 5.89932 3.5982 9.59504
79 1 H 4.96184 5.00882 7.06848
80 1 H 6.66657 4.84153 7.33899
81 1 H 6.28987 6.12374 9.20268
82 2 C 3.61455 10.921 12.3807
83 2 C 3.37904 10.3762 13.6943
84 4 O 1.93534 10.421 13.9001
85 1 H 2.88463 10.5588 11.6706
86 1 H 3.6222 11.9797 12.3313
87 1 H 4.61803 10.5166 11.9981
88 1 H 3.83486 10.8551 14.5775
89 1 H 3.68073 9.30797 13.62
90 1 H 1.60856 9.95212 14.6776
91 2 C 10.807 2.96444 15.1339
92 2 C 11.7669 3.49539 14.1332
93 4 O 12.7708 2.52608 13.8187
94 1 H 10.1422 3.83388 15.4208
95 1 H 10.2184 2.09587 14.8266
96 1 H 11.4718 2.74835 15.973
97 1 H 12.2006 4.36952 14.4979
98 1 H 11.2396 3.85616 13.168
99 1 H 12.8438 1.82957 14.4629
100 2 C 6.65444 14.5877 10.5816
101 2 C 6.83559 13.7556 11.8474
102 4 O 8.23283 13.7531 12.1439
103 1 H 7.34566 14.3231 9.82519
104 1 H 5.63506 14.4028 10.2508
105 1 H 6.76298 15.5835 10.9545
106 1 H 6.45842 12.7256 11.7487
107 1 H 6.31929 14.1365 12.7185
108 1 H 8.624 12.9836 11.7449
109 2 C 4.13572 16.9156 7.06856
110 2 C 5.12826 16.1104 6.1817
111 4 O 4.90585 14.7074 6.42235
112 1 H 3.06381 16.6621 6.9079
113 1 H 4.36869 16.8881 8.13604
114 1 H 4.30265 -0.907116 6.85892
115 1 H 6.09685 16.5311 6.40963
116 1 H 4.94902 16.3649 5.12974
117 1 H 4.11538 14.4688 5.90673
118 2 C 1.93692 7.85273 7.98464
119 2 C 2.30017 7.97564 9.43338
120 4 O 1.33222 7.36927 10.2625
121 1 H 1.20894 8.6848 7.83852
122 1 H 2.81639 8.03973 7.35193
123 1 H 1.55232 6.83861 7.84359
124 1 H 2.46254 9.01292 9.70301
125 1 H 3.2719 7.50866 9.65067
126 1 H 0.873275 8.10149 10.6707
127 2 C 7.28476 17.8607 15.7652
128 2 C 6.19044 17.6028 14.7225
129 4 O 6.33413 16.5002 13.7792
130 1 H 6.87595 -0.16819 16.307
131 1 H 7.52555 16.997 16.4276
132 1 H 8.19565 -0.64021 15.3454
133 1 H 6.12265 -0.377234 14.1307
134 1 H 5.25175 17.419 15.2411
135 1 H 7.24244 16.4822 13.4939
136 2 C 7.59767 11.1188 2.59471
137 2 C 8.91352 11.7889 2.72555
138 4 O 9.85572 11.4887 1.66121
139 1 H 7.76446 10.0361 2.68054
140 1 H 6.97852 11.4241 3.47626
141 1 H 7.05448 11.4592 1.73828
142 1 H 9.37026 11.4114 3.60846
143 1 H 9.02364 12.889 2.75063
144 1 H 9.60787 12.1012 0.968126
145 2 C 8.68978 0.668071 3.68285
146 2 C 9.65422 -0.263981 2.90124
147 4 O 10.6621 -0.676249 3.85872
148 1 H 7.73041 0.793101 3.12178
149 1 H 8.66824 0.240216 4.70713
150 1 H 9.11349 1.66474 3.80039
151 1 H 10.1752 0.38526 2.19477
152 1 H 9.15736 17.7246 2.41551
153 1 H 10.7895 17.2688 3.96592
154 2 C 0.275174 0.763118 15.4241
155 2 C 1.11805 2.02554 15.2148
156 4 O 1.26388 2.30006 13.8225
157 1 H 0.674034 -0.23324 15.2712
158 1 H 0.00664495 0.783598 16.4764
159 1 H -0.597188 0.908287 14.7886
160 1 H 2.10778 1.9459 15.6601
161 1 H 0.605506 2.85184 15.6861
162 1 H 1.49113 3.2456 13.7701
163 2 C 16.6403 10.1762 4.74105
164 2 C 17.5691 11.1014 5.49997
165 4 O -0.217256 10.4099 6.11098
166 1 H 16.1323 9.46054 5.36213
167 1 H 15.8257 10.7994 4.37812
168 1 H 17.1257 9.60242 3.96151
169 1 H 16.979 11.6253 6.24147
170 1 H -0.898958 11.7969 4.73263
171 1 H -0.122145 10.7037 7.01488
172 2 C 12.2945 8.92228 17.5767
173 2 C 11.3391 8.06177 16.7941
174 4 O 10.141 7.86295 17.4372
175 1 H 11.7965 9.81983 17.8565
176 1 H 12.5203 8.33114 -0.378935
177 1 H 13.2714 8.95446 17.0196
178 1 H 11.793 7.09086 16.6482
179 1 H 11.1999 8.49949 15.7782
180 1 H 9.94118 8.77492 -1.1303
181 2 C 0.439656 0.221875 6.89404
182 2 C 0.890514 1.68346 6.98701
183 4 O -0.246996 2.64644 7.05661
184 1 H -0.317586 0.0404184 6.19737
185 1 H 1.1963 -0.289313 6.30634
186 1 H 0.221288 -0.318525 7.80445
187 1 H 1.68267 2.07808 6.31762
188 1 H 1.34073 1.7623 7.97038
189 1 H 17.813 2.11325 6.92638
190 2 C 8.34038 17.6063 8.94818
191 2 C 7.55355 -0.453788 9.97355
192 4 O 8.25365 -0.613321 11.182
193 1 H 8.03305 17.6915 7.8938
194 1 H 9.34891 -0.865298 8.98895
195 1 H 8.33139 16.5645 9.2679
196 1 H 6.52636 -0.782792 10.0808
197 1 H 7.60751 0.602012 9.76423
198 1 H 8.48623 17.3266 11.299
199 2 C 11.8348 16.8881 11.831
200 2 C 11.0415 15.6054 11.5851
201 4 O 9.90628 15.9123 10.7382
202 1 H 12.5688 16.5312 12.5004
203 1 H 12.3081 17.2441 10.9125
204 1 H 11.2612 17.7317 12.2124
205 1 H 10.6776 15.3131 12.578
206 1 H 11.6643 14.7981 11.1982
207 1 H 9.34791 15.1152 10.7829
208 2 C 3.42394 10.2965 2.36047
209 2 C 2.26155 10.2596 3.30008
210 4 O 2.69757 10.7692 4.57379
211 1 H 3.76833 11.327 2.36907
212 1 H 4.28647 9.68723 2.63042
213 1 H 3.11 10.1384 1.32479
214 1 H 1.94873 9.21274 3.3213
215 1 H 1.46262 10.8778 2.90285
216 1 H 1.93023 10.6724 5.15301
217 2 C 14.976 9.69131 14.2827
218 2 C 16.1425 8.82038 14.5724
219 4 O 15.8111 7.79256 15.5541
220 1 H 14.1626 9.17118 13.7673
221 1 H 14.5443 10.1531 15.1767
222 1 H 15.2907 10.5403 13.5918
223 1 H 16.9394 9.45705 14.9023
224 1 H 16.486 8.27945 13.6801
225 1 H 14.8807 7.57047 15.3406
226 2 C 14.849 2.89054 7.32821
227 2 C 15.3639 1.51081 7.25872
228 4 O 16.4616 1.1792 6.32051
229 1 H 14.3577 3.20197 6.39092
230 1 H 14.0781 2.87013 8.1076
231 1 H 15.5332 3.63283 7.65903
232 1 H 14.4796 0.959871 6.98815
233 1 H 15.6595 1.21723 8.29493
234 1 H 16.6347 1.84406 5.64351
235 2 C 15.4738 16.8 -0.490236
236 2 C 16.7406 16.6813 17.6251
237 4 O 16.828 15.4547 16.8747
238 1 H 14.6584 16.9085 17.6484
239 1 H 15.1933 15.8577 0.0720645
240 1 H 15.598 17.6072 0.149691
241 1 H 17.5923 16.6558 -0.541668
242 1 H 16.8887 17.4363 16.8116
243 1 H -0.75508 4.11502 7.8599
244 2 C 11.7862 14.2612 2.65044
245 2 C 12.7381 15.1867 3.36882
246 4 O 12.0308 15.7486 4.57972
247 1 H 12.3283 13.735 1.91669
248 1 H 11.3182 13.4511 3.14768
249 1 H 11.0296 14.9409 2.22159
250 1 H 12.8952 16.0708 2.88027
251 1 H 13.731 14.6387 3.64709
252 1 H 11.6511 15.0758 5.20749
253 2 C 16.9547 6.34935 -0.528017
254 2 C -0.911042 5.70563 17.3959
255 4 O -0.772032 6.40608 16.0829
256 1 H 15.8992 6.16516 -0.791305
257 1 H 17.1101 5.97822 0.48739
258 1 H 17.1074 7.41867 -0.517377
259 1 H 17.6721 4.69109 17.1504
260 1 H 0.0951499 5.75876 17.7276
261 1 H 17.1819 6.70938 15.9691
262 2 C 17.0036 17.2975 3.93386
263 2 C -0.66184 16.6241 4.53125
264 4 O 0.46208 17.0045 3.61904
265 1 H 16.9497 -0.486511 4.07709
266 1 H 17.0304 17.1613 2.82559
267 1 H 16.0275 16.8691 4.13749
268 1 H -0.843739 15.5426 4.65686
269 1 H -0.439383 17.0048 5.56562
270 1 H 1.28308 16.8354 4.01065
271 2 C 12.3829 16.8353 15.9548
272 2 C 12.225 -0.525894 15.8703
273 4 O 13.5459 0.0379907 15.9306
274 1 H 12.6258 16.5211 16.9872
275 1 H 11.4436 16.372 15.6147
276 1 H 13.2796 16.5886 15.3428
277 1 H 11.6494 -0.185341 16.7396
278 1 H 11.6569 -0.160157 15.0098
279 1 H 13.4428 0.97464 16.3863
280 2 C 9.39121 2.92455 7.11289
281 2 C 9.81383 3.93006 8.12212
282 4 O 8.6043 4.17651 8.86227
283 1 H 8.4789 3.2438 6.63468
284 1 H 10.143 2.83916 6.31066
285 1 H 9.26146 1.93403 7.60125
286 1 H 10.1201 4.86601 7.73642
287 1 H 10.5965 3.61045 8.75043
288 1 H 8.82676 4.70746 9.65804
289 2 C 7.31659 6.09935 11.8107
290 2 C 8.75115 6.05382 12.1999
291 4 O 9.46265 6.05412 10.9318
292 1 H 7.19206 5.47963 10.8977
293 1 H 6.57088 5.74358 12.5115
294 1 H 6.99981 7.09091 11.5026
295 1 H 9.11953 5.15296 12.7268
296 1 H 9.06199 6.897 12.8415
297 1 H 9.60705 6.98663 10.7411
298 2 C 13.4095 11.1565 5.88643
299 2 C 11.9212 11.6287 5.65
300 4 O 10.9328 11.044 6.4929
301 1 H 14.0639 11.8562 5.37533
302 1 H 13.5945 11.161 6.94945
303 1 H 13.5989 10.181 5.46958
304 1 H 11.6612 11.5078 4.58222
305 1 H 11.9451 12.669 5.99934
306 1 H 10.8662 10.1154 6.17681
307 2 C 12.3624 6.54299 12.2451
308 2 C 12.0065 7.06308 13.596
309 4 O 13.0586 7.0848 14.4639
310 1 H 12.4586 5.44994 12.3029
311 1 H 11.6324 6.90061 11.5338
312 1 H 13.3446 6.94641 11.9531
313 1 H 11.2048 6.50549 14.1259
314 1 H 11.6775 8.07567 13.55
315 1 H 13.5943 6.30193 14.1889
316 2 C 4.30473 10.9891 8.26918
317 2 C 5.11584 11.6512 7.17344
318 4 O 5.94486 12.7045 7.61141
319 1 H 3.37561 11.4866 8.46227
320 1 H 4.16151 9.92924 8.08117
321 1 H 4.86629 10.9985 9.21643
322 1 H 4.40118 11.9655 6.45528
323 1 H 5.74461 10.8925 6.73095
324 1 H 5.63063 13.5232 7.22096
325 2 C 17.4684 -0.673951 11.1354
326 2 C -0.705858 0.17571 12.1898
327 4 O 0.0964806 1.19835 11.5368
328 1 H -0.692702 17.794 10.4189
329 1 H 16.9418 17.4727 11.6989
330 1 H 16.7409 0.0170561 10.6923
331 1 H -0.142125 -0.4329 12.9125
332 1 H 17.3274 0.685477 12.7195
333 1 H 0.560393 1.70402 12.2634
334 2 C 3.40336 6.30184 13.1258
335 2 C 3.16624 5.93212 14.5795
336 4 O 2.07561 4.99347 14.6407
337 1 H 4.31452 6.86856 13.0306
338 1 H 3.53098 5.36538 12.5866
339 1 H 2.55643 6.87955 12.6779
340 1 H 2.94703 6.75544 15.229
341 1 H 4.04918 5.40073 14.9655
342 1 H 1.263 5.45484 14.9471
343 2 C 6.38444 13.1904 16.5362
344 2 C 5.23862 13.9897 15.9126
345 4 O 4.2076 13.1573 15.3418
346 1 H 6.97213 13.8107 17.0602
347 1 H 5.93257 12.4061 17.1624
348 1 H 6.95209 12.7006 15.7948
349 1 H 5.76898 14.4935 15.0577
350 1 H 4.72952 14.6591 16.5918
351 1 H 3.86788 13.6098 14.561
352 2 C 6.91326 2.62414 12.9798
353 2 C 6.18877 2.62288 14.3479
354 4 O 6.32986 3.89663 14.9624
355 1 H 7.91886 3.00238 13.1645
356 1 H 6.98468 1.62489 12.5437
357 1 H 6.44813 3.33294 12.2865
358 1 H 6.60426 1.85926 14.9816
359 1 H 5.11358 2.48395 14.2188
360 1 H 6.48971 3.82823 15.893
361 2 C 12.0645 15.848 7.76608
362 2 C 13.0144 15.0172 8.5426
363 4 O 12.8601 13.6092 8.32706
364 1 H 11.1197 15.2998 7.82256
365 1 H 11.8887 16.8375 8.212
366 1 H 12.3607 15.9435 6.73654
367 1 H 12.9483 15.319 9.59581
368 1 H 14.0191 15.2568 8.26269
369 1 H 11.9409 13.3771 8.36055
370 2 C 12.3117 6.51079 8.80749
371 2 C 11.8878 7.55534 7.80311
372 4 O 11.545 8.77368 8.55305
373 1 H 11.6174 6.36726 9.6019
374 1 H 12.4491 5.69031 8.14141
375 1 H 13.3069 6.71582 9.25226
376 1 H 11.0588 7.25664 7.20745
377 1 H 12.7081 7.75225 7.15385
378 1 H 11.4123 9.56987 8.00393
379 2 C 2.01463 5.14199 5.0275
380 2 C 1.95296 6.62016 4.69436
381 4 O 0.775186 7.20635 5.27371
382 1 H 1.20805 4.58758 4.53085
383 1 H 2.99137 4.73207 4.81341
384 1 H 1.89044 5.04056 6.1021
385 1 H 1.98128 6.86491 3.65964
386 1 H 2.81504 7.16992 5.15287
387 1 H 1.01931 7.38385 6.18077
388 2 C 15.3273 13.5845 12.9231
389 2 C 14.7123 14.0386 11.5711
390 4 O 13.7265 13.1559 11.2478
391 1 H 15.9349 12.7034 12.7188
392 1 H 15.9353 14.342 13.401
393 1 H 14.538 13.2925 13.6279
394 1 H 15.5408 14.088 10.8485
395 1 H 14.3191 15.0547 11.6235
396 1 H 13.3968 13.2932 10.3441
397 2 C 1.18605 11.645 9.8701
398 2 C 0.170905 11.4555 11.0085
399 4 O 0.385076 10.2082 11.6806
400 1 H 1.14287 10.6996 9.29195
401 1 H 0.971788 12.4483 9.173
402 1 H 2.14081 11.8093 10.3126
403 1 H -0.852667 11.4564 10.6544
404 1 H 0.292195 12.2844 11.6903
405 1 H 1.01993 10.27 12.3986
406 2 C 0.836646 10.1225 -0.510278
407 2 C 1.93006 9.5362 17.4224
408 4 O 1.25297 8.9452 16.3429
409 1 H 0.55454 11.1063 -0.704758
410 1 H -0.0425161 9.49982 -0.536148
411 1 H 1.24811 10.1355 0.512908
412 1 H 2.34082 8.77378 18.0647
413 1 H 2.6377 10.2307 17.0232
414 1 H 0.414735 8.52492 16.553
415 2 C 8.33072 7.66808 5.18837
416 2 C 9.07661 8.871 5.67663
417 4 O 10.477 8.68922 5.40981
418 1 H 8.5282 6.71741 5.6935
419 1 H 7.25268 7.89464 5.34594
420 1 H 8.45601 7.53328 4.10841
421 1 H 8.95436 9.04665 6.75383
422 1 H 8.744 9.81065 5.27476
423 1 H 10.6439 8.41607 4.49797
424 2 C 4.62346 13.6777 3.05254
425 2 C 3.20677 14.203 3.13939
426 4 O 2.71927 14.3836 4.5238
427 1 H 4.74371 12.8036 3.59833
428 1 H 4.82836 13.5401 1.99741
429 1 H 5.2995 14.4171 3.53771
430 1 H 2.55718 13.5428 2.65411
431 1 H 3.11316 15.1873 2.67582
432 1 H 1.93573 13.8363 4.55185
433 2 C -0.165595 4.24164 10.8544
434 2 C -0.897142 3.60859 9.77958
435 4 O 17.8257 4.57966 8.65714
436 1 H -0.644065 5.04562 11.4394
437 1 H 0.177563 3.57761 11.5619
438 1 H 0.764766 4.71716 10.4842
439 1 H 16.9925 3.26531 10.1296
440 1 H -0.344604 2.67475 9.49618
441 1 H -0.592852 5.37451 8.79691
442 2 C 14.6926 2.39179 -0.0202755
443 2 C 14.8393 3.10375 17.4943
444 4 O 13.7291 2.82719 16.653
445 1 H 14.2197 1.42469 -0.0758876
446 1 H 15.6369 2.32142 0.50724
447 1 H 14.0169 2.92447 0.621106
448 1 H 15.7735 2.77579 17.0257
449 1 H 14.8989 4.17066 17.666
450 1 H 13.9451 3.03087 15.7378
ITEM: TIMESTEP
6200
ITEM: NUMBER OF ATOMS
450
ITEM: BOX BOUNDS pp pp pp
-1.0051482740392998e+00 1.7930148274039283e+01
-1.0051482740392998e+00 1.7930148274039283e+01
-1.0051482740392998e+00 1.7930148274039283e+01
ITEM: ATOMS id type element x y z
1 2 C 12.7811 5.93337 3.56444
2 2 C 11.7952 6.64574 2.66155
3 4 O 11.5663 8.01446 2.99102
4 1 H 12.6132 4.85579 3.64856
5 1 H 13.824 6.10626 3.33512
6 1 H 12.6 6.28526 4.55933
7 1 H 10.7994 6.23558 2.6945
8 1 H 12.1334 6.62833 1.61368
9 1 H 11.0362 8.37988 2.28755
10 2 C 12.4895 12.6166 16.4347
11 2 C 13.8078 13.1271 16.9944
12 4 O 13.7148 13.0891 -0.499917
13 1 H 11.6423 13.053 16.9275
14 1 H 12.3566 12.8609 15.3654
15 1 H 12.4369 11.5121 16.4918
16 1 H 14.0665 14.1752 16.6674
17 1 H 14.5601 12.3972 16.6244
18 1 H 13.5806 12.1794 -0.245938
19 2 C 14.452 0.119316 2.61823
20 2 C 13.6755 0.586615 3.90797
21 4 O 12.7576 1.69319 3.70481
22 1 H 14.9363 0.994023 2.24592
23 1 H 15.1791 -0.643096 2.87343
24 1 H 13.7051 -0.261671 1.93321
25 1 H 14.3186 0.954605 4.7041
26 1 H 13.1936 -0.28491 4.32435
27 1 H 11.8349 1.37495 3.56711
28 2 C 16.5417 8.0898 9.57362
29 2 C 16.7732 9.49441 9.08392
30 4 O 16.4823 9.55567 7.6903
31 1 H 17.258 7.39065 9.17324
32 1 H 16.5821 8.09406 10.6338
33 1 H 15.5927 7.73236 9.15345
34 1 H 17.7765 9.77438 9.17196
35 1 H 16.2 10.2052 9.67962
36 1 H 16.2356 8.67307 7.40516
37 2 C 3.13116 1.04992 10.4938
38 2 C 3.44689 2.24156 11.4425
39 4 O 2.74608 3.20897 11.5213
40 1 H 4.04047 0.576308 10.1327
41 1 H 2.49884 0.276899 10.9383
42 1 H 2.56624 1.51074 9.63437
43 1 H 4.34806 2.25273 12.1597
44 1 H 16.3481 14.9298 17.5394
45 1 H 8.54719 6.44496 9.00709
46 2 C 9.0059 14.0052 5.56054
47 2 C 9.04025 14.6302 6.9209
48 4 O 9.47318 13.6749 7.88077
49 1 H 8.90856 14.7946 4.8261
50 1 H 9.93387 13.4636 5.38891
51 1 H 8.118 13.375 5.49744
52 1 H 8.02393 14.8105 7.22456
53 1 H 9.58639 15.5768 6.90294
54 1 H 10.0967 13.0828 7.43187
55 2 C 16.7899 3.503 14.1893
56 2 C 15.9629 4.57313 13.4008
57 4 O 14.6719 4.55574 13.9477
58 1 H 16.2365 2.65167 14.5079
59 1 H 17.7585 3.09888 13.7636
60 1 H 17.0236 4.05361 15.0627
61 1 H 15.8744 4.66805 12.3075
62 1 H 16.3101 5.57438 13.7707
63 1 H 14.2218 3.78738 13.6178
64 2 C 10.6518 10.6659 11.2686
65 2 C 9.63508 9.56613 11.306
66 4 O 10.0769 8.39144 10.5618
67 1 H 10.4961 11.2848 10.3748
68 1 H 10.4486 11.3122 12.1587
69 1 H 11.6862 10.3917 11.3828
70 1 H 8.70903 9.89315 10.8257
71 1 H 9.38929 9.19743 12.3094
72 1 H 10.7299 8.74127 9.8985
73 2 C 5.34071 3.6129 8.36877
74 2 C 5.69442 4.95283 7.68004
75 4 O 5.57588 6.05511 8.60851
76 1 H 4.31879 3.74161 8.77413
77 1 H 5.374 2.87241 7.56305
78 1 H 6.03271 3.37917 9.15613
79 1 H 4.99531 5.11262 6.84696
80 1 H 6.70217 4.8653 7.24661
81 1 H 6.39671 5.8719 9.09622
82 2 C 3.70069 10.9605 12.4834
83 2 C 3.11517 10.5056 13.8485
84 4 O 1.7313 10.2701 13.8468
85 1 H 3.56595 10.2484 11.652
86 1 H 3.21555 11.8986 12.087
87 1 H 4.68902 11.2667 12.666
88 1 H 3.3957 11.1142 14.6483
89 1 H 3.66738 9.56682 14.0168
90 1 H 1.43108 9.87449 14.687
91 2 C 10.4488 2.92292 15.1946
92 2 C 11.4473 3.67139 14.4193
93 4 O 12.5913 2.96373 14.0145
94 1 H 9.68154 3.65886 15.3603
95 1 H 10.0355 2.15669 14.5417
96 1 H 10.8111 2.64812 16.1929
97 1 H 11.9616 4.50328 15.0517
98 1 H 10.9844 4.10578 13.5894
99 1 H 12.4725 1.99437 13.8552
100 2 C 6.79599 14.5561 10.3774
101 2 C 6.90667 14.0444 11.8385
102 4 O 8.25624 13.8326 12.309
103 1 H 7.0294 13.7174 9.70879
104 1 H 5.80544 14.964 10.2474
105 1 H 7.5358 15.3516 10.3285
106 1 H 6.26289 13.1943 12.0094
107 1 H 6.60598 14.847 12.5628
108 1 H 8.63932 12.997 12.0068
109 2 C 4.36796 16.9736 7.20751
110 2 C 5.12939 16.163 6.19015
111 4 O 4.72457 14.8342 6.13977
112 1 H 3.29671 16.7839 7.03237
113 1 H 4.40951 16.6367 8.25283
114 1 H 4.53064 -0.88396 7.15141
115 1 H 6.13722 16.1862 6.52472
116 1 H 5.1684 16.6754 5.20979
117 1 H 3.88666 14.7279 5.67011
118 2 C 2.38228 7.85916 8.00307
119 2 C 2.33044 7.8951 9.54869
120 4 O 1.04975 7.3284 9.99321
121 1 H 1.43924 8.11704 7.5346
122 1 H 3.06386 8.63904 7.63743
123 1 H 2.78869 6.89711 7.70118
124 1 H 2.40703 8.9085 9.9554
125 1 H 3.12218 7.30407 9.97355
126 1 H 0.785791 7.96845 10.6825
127 2 C 7.3404 17.8911 15.8669
128 2 C 6.24654 17.869 14.8147
129 4 O 6.53974 16.6996 14.0719
130 1 H 7.39472 -0.15782 16.4722
131 1 H 7.25672 16.9426 16.4504
132 1 H 8.26193 17.8458 15.2515
133 1 H 6.29024 -0.188454 14.1539
134 1 H 5.25473 17.7603 15.2241
135 1 H 6.8518 16.9284 13.2019
136 2 C 7.40448 11.0256 2.41837
137 2 C 8.62341 11.7347 2.85908
138 4 O 9.61271 11.6 1.86012
139 1 H 7.65067 10.0792 1.95774
140 1 H 6.70414 10.9525 3.2303
141 1 H 6.91691 11.6633 1.65176
142 1 H 9.04573 11.2636 3.76135
143 1 H 8.64517 12.7736 3.10412
144 1 H 9.19808 11.574 0.998166
145 2 C 8.91407 0.878078 3.50458
146 2 C 9.63548 -0.438334 3.10101
147 4 O 10.7601 -0.792699 3.89757
148 1 H 8.02116 0.951603 2.90365
149 1 H 8.74466 0.889173 4.57668
150 1 H 9.55902 1.66712 3.1451
151 1 H 9.86014 -0.252713 2.0488
152 1 H 8.96987 17.6244 3.02326
153 1 H 10.7957 17.1856 3.72556
154 2 C 0.309224 0.773019 15.3983
155 2 C 0.804809 2.20704 15.2174
156 4 O 1.08669 2.36865 13.8362
157 1 H 0.990807 0.0946231 14.87
158 1 H 0.326449 0.513623 16.469
159 1 H -0.702727 0.652832 15.0032
160 1 H 1.73604 2.42413 15.7725
161 1 H 0.0809771 2.98075 15.5096
162 1 H 1.4874 3.24209 13.7886
163 2 C 16.97 10.1105 4.56334
164 2 C 17.7903 11.0687 5.42735
165 4 O 0.00215197 10.4119 6.05483
166 1 H 16.4246 9.39284 5.16333
167 1 H 16.2601 10.6442 3.93428
168 1 H 17.6386 9.55997 3.9047
169 1 H 17.1682 11.4498 6.19555
170 1 H -0.854385 11.9533 4.85861
171 1 H -0.334271 9.54419 6.29542
172 2 C 12.4191 8.80777 17.428
173 2 C 11.3413 7.99172 16.6837
174 4 O 10.1364 7.80072 17.5363
175 1 H 11.8802 9.64457 -1.06231
176 1 H 12.9872 8.2653 -0.755348
177 1 H 13.1955 9.07898 16.7083
178 1 H 11.7824 6.98347 16.4425
179 1 H 11.1465 8.4689 15.7429
180 1 H 9.43597 8.29 17.0703
181 2 C 0.57557 0.20589 7.23063
182 2 C 1.06243 1.5847 7.04932
183 4 O 0.0427882 2.53723 6.84764
184 1 H 0.0716467 -0.287966 6.35373
185 1 H 1.26286 -0.545651 7.64366
186 1 H -0.248104 0.241709 8.01433
187 1 H 1.74331 1.77106 6.23064
188 1 H 1.63829 2.00559 7.86887
189 1 H -0.558611 2.28516 6.15283
190 2 C 8.23503 17.7367 9.01979
191 2 C 7.4217 -0.689455 10.2027
192 4 O 8.14716 -0.72205 11.4893
193 1 H 7.66823 -0.948281 8.1559
194 1 H 9.22488 -0.697419 8.9031
195 1 H 8.45365 16.6835 9.01721
196 1 H 6.53039 17.6145 10.3187
197 1 H 7.07184 0.33439 9.99624
198 1 H 9.03565 -0.384978 11.3347
199 2 C 11.6019 16.6094 12.1402
200 2 C 11.0624 15.2405 11.6861
201 4 O 10.1855 15.323 10.59
202 1 H 12.378 16.5354 12.9221
203 1 H 12.0544 17.1229 11.2575
204 1 H 10.7439 17.1744 12.4531
205 1 H 10.5742 14.8517 12.5614
206 1 H 11.8539 14.5444 11.4559
207 1 H 9.39575 14.8206 10.8984
208 2 C 3.40309 10.2522 2.24237
209 2 C 2.1341 10.337 3.16775
210 4 O 2.48051 10.9511 4.37037
211 1 H 3.61439 11.2489 1.89411
212 1 H 4.23491 9.83696 2.8106
213 1 H 3.30124 9.69326 1.33847
214 1 H 1.81674 9.28777 3.24273
215 1 H 1.29408 10.8563 2.6758
216 1 H 1.69739 11.0584 4.92183
217 2 C 15.0766 9.83592 13.9669
218 2 C 16.2469 8.91665 14.4627
219 4 O 16.0242 7.99947 15.5235
220 1 H 14.2472 9.24843 13.7112
221 1 H 14.6716 10.4368 14.7994
222 1 H 15.3618 10.4702 13.1428
223 1 H 17.0763 9.59558 14.7722
224 1 H 16.6326 8.33906 13.636
225 1 H 15.1329 7.68331 15.524
226 2 C 15.0019 2.7748 7.58639
227 2 C 15.4893 1.32694 7.5462
228 4 O 16.3537 1.32676 6.44009
229 1 H 14.5324 3.08238 6.65623
230 1 H 14.2806 2.95971 8.36177
231 1 H 15.8875 3.41956 7.76446
232 1 H 14.6616 0.57402 7.50973
233 1 H 16.0169 1.15227 8.47898
234 1 H 16.0951 0.839497 5.64437
235 2 C 15.3525 16.8153 -0.701357
236 2 C 16.7186 16.7992 17.6447
237 4 O 16.9195 15.4992 17.0203
238 1 H 14.6471 16.9027 17.4429
239 1 H 15.0646 15.9686 -0.133365
240 1 H 15.2724 17.8222 -0.16197
241 1 H 17.5762 16.9859 -0.589914
242 1 H 16.9711 17.4748 16.8681
243 1 H -0.209592 3.8423 7.99982
244 2 C 11.7352 14.3308 2.56595
245 2 C 12.7012 15.0364 3.3946
246 4 O 12.055 15.4454 4.64592
247 1 H 12.2456 14.1806 1.55561
248 1 H 11.2834 13.3478 2.68086
249 1 H 11.0771 15.1978 2.25165
250 1 H 12.8681 16.1091 2.9422
251 1 H 13.6381 14.6061 3.57849
252 1 H 11.9399 14.7159 5.28822
253 2 C 17.0793 6.53144 -0.513914
254 2 C -0.977594 5.64116 17.5173
255 4 O -0.485155 6.36265 16.3685
256 1 H 16.4415 7.15355 17.8079
257 1 H 16.563 5.9204 0.233833
258 1 H 17.7093 7.19759 0.0993817
259 1 H 17.4454 4.75338 17.1319
260 1 H -0.0511023 5.25632 -0.965474
261 1 H 17.621 6.80759 16.106
262 2 C 17.183 17.4418 3.70376
263 2 C -0.596225 16.5545 4.06863
264 4 O 0.640107 17.1581 3.72379
265 1 H 17.262 -0.435969 3.79544
266 1 H 16.8655 17.2542 2.68443
267 1 H 16.3325 17.1917 4.36391
268 1 H -0.841437 15.6638 3.50304
269 1 H -0.649555 16.307 5.10384
270 1 H 1.33652 16.5169 3.761
271 2 C 12.1622 17.0233 15.6128
272 2 C 12.276 -0.361822 15.6639
273 4 O 13.592 0.123387 15.9941
274 1 H 11.7903 16.7036 16.5644
275 1 H 11.4446 16.8295 14.8631
276 1 H 13.0987 16.5137 15.3765
277 1 H 11.5828 0.0118081 16.4297
278 1 H 11.9813 0.132855 14.7371
279 1 H 13.5529 0.999459 16.2093
280 2 C 9.03519 2.84619 6.77405
281 2 C 9.60105 3.56377 7.9979
282 4 O 8.61603 4.13325 8.86116
283 1 H 8.5922 3.56983 6.09288
284 1 H 9.88599 2.41275 6.26176
285 1 H 8.32071 2.08628 7.00931
286 1 H 10.2466 4.43356 7.75101
287 1 H 10.2368 2.84189 8.6137
288 1 H 9.0855 4.56077 9.58778
289 2 C 7.16042 6.08976 12.0109
290 2 C 8.66836 5.83351 11.9721
291 4 O 9.43193 5.70461 10.7829
292 1 H 6.60211 5.2071 11.7624
293 1 H 6.83833 6.35171 13.0282
294 1 H 6.86182 6.90736 11.3476
295 1 H 8.89934 4.91468 12.5144
296 1 H 9.10568 6.65309 12.5426
297 1 H 9.75081 6.5904 10.4935
298 2 C 13.189 10.8389 5.87092
299 2 C 12.0687 11.8458 5.93365
300 4 O 11.0679 11.4813 6.85829
301 1 H 13.6719 11.0114 4.90062
302 1 H 13.9204 10.9177 6.68446
303 1 H 12.7954 9.78936 5.81721
304 1 H 11.6592 11.8517 4.92958
305 1 H 12.4248 12.8216 6.17326
306 1 H 10.6653 10.6759 6.50836
307 2 C 12.6642 6.82574 11.9912
308 2 C 12.243 7.04325 13.4648
309 4 O 13.2039 6.80376 14.5637
310 1 H 13.0955 5.80865 11.959
311 1 H 11.7176 6.8021 11.4353
312 1 H 13.3351 7.60757 11.6418
313 1 H 11.3578 6.46476 13.7267
314 1 H 11.9831 8.10802 13.6416
315 1 H 13.6947 6.00297 14.3909
316 2 C 4.29539 11.1076 8.39926
317 2 C 5.48966 11.2917 7.37885
318 4 O 6.17998 12.4988 7.63661
319 1 H 4.32193 11.9333 9.12125
320 1 H 3.28596 11.1357 7.95127
321 1 H 4.36188 10.1481 8.904
322 1 H 5.07325 11.1932 6.32479
323 1 H 6.17535 10.445 7.45423
324 1 H 5.68485 13.2831 7.3541
325 2 C 17.5186 -0.771304 11.0168
326 2 C -0.749271 0.0392004 12.1509
327 4 O -0.226165 1.22088 11.5979
328 1 H -0.522618 17.8763 10.4086
329 1 H 17.0734 17.2348 11.4288
330 1 H 16.8169 -0.171494 10.4347
331 1 H -0.0138131 -0.593822 12.6528
332 1 H 17.4742 0.387025 12.9079
333 1 H 0.155869 1.77251 12.2651
334 2 C 3.51648 6.47043 13.3236
335 2 C 3.2208 5.97641 14.7566
336 4 O 2.10682 5.01321 14.7802
337 1 H 4.26178 7.30712 13.3428
338 1 H 3.88253 5.62852 12.7825
339 1 H 2.6483 6.79111 12.7521
340 1 H 2.9653 6.77417 15.4773
341 1 H 4.07929 5.45951 15.1189
342 1 H 1.26923 5.51664 14.7442
343 2 C 6.18181 13.1793 16.4162
344 2 C 5.17757 14.1893 15.8479
345 4 O 4.31952 13.4195 15.0637
346 1 H 7.15708 13.7385 16.83
347 1 H 5.6483 12.6747 17.1777
348 1 H 6.53604 12.4353 15.6071
349 1 H 5.69632 15.0106 15.3536
350 1 H 4.62822 14.6758 16.6815
351 1 H 3.62395 13.9614 14.6716
352 2 C 6.6364 2.54104 12.9883
353 2 C 5.78071 2.65058 14.1907
354 4 O 6.15311 3.81116 14.9888
355 1 H 7.70368 2.62286 13.2011
356 1 H 6.36066 1.61919 12.477
357 1 H 6.43723 3.38162 12.3576
358 1 H 5.90248 1.77532 14.8564
359 1 H 4.70321 2.73354 14.0066
360 1 H 7.0962 3.74881 15.0109
361 2 C 12.1941 15.9438 8.04801
362 2 C 13.3666 15.009 8.28285
363 4 O 12.9817 13.6103 8.16915
364 1 H 11.4986 16.0403 8.8598
365 1 H 12.5689 16.9684 7.87528
366 1 H 11.6683 15.6893 7.14559
367 1 H 13.8192 15.2347 9.26344
368 1 H 14.1189 15.2211 7.49999
369 1 H 12.1376 13.5631 8.62814
370 2 C 12.3101 6.54012 8.72475
371 2 C 12.1825 7.80678 7.82703
372 4 O 11.5909 8.91165 8.49774
373 1 H 11.2886 6.22473 8.98728
374 1 H 12.8734 5.80298 8.16053
375 1 H 12.8183 6.79728 9.64778
376 1 H 11.5577 7.595 6.93012
377 1 H 13.2133 8.12926 7.53391
378 1 H 11.8221 9.73431 8.08317
379 2 C 1.55385 5.05325 5.04392
380 2 C 1.79332 6.49181 4.55314
381 4 O 0.660087 7.30066 4.8649
382 1 H 0.521687 4.77722 4.95341
383 1 H 2.28299 4.34634 4.6062
384 1 H 1.86356 5.00526 6.08347
385 1 H 1.97926 6.53463 3.45398
386 1 H 2.63457 6.95144 5.01774
387 1 H 0.722624 8.07907 4.29735
388 2 C 15.5588 13.3932 12.8953
389 2 C 14.9654 14.2819 11.8419
390 4 O 14.0009 13.4895 11.0487
391 1 H 15.8614 12.4807 12.4158
392 1 H 16.3985 13.9252 13.3629
393 1 H 14.8888 13.1675 13.7152
394 1 H 15.7884 14.6528 11.2251
395 1 H 14.48 15.1674 12.2519
396 1 H 14.3589 13.4742 10.1288
397 2 C 0.660225 11.4624 9.74632
398 2 C 0.196991 11.3473 11.1857
399 4 O 0.181239 9.93987 11.5266
400 1 H 0.407945 10.5787 9.20302
401 1 H 0.107378 12.295 9.30141
402 1 H 1.71092 11.7048 9.55869
403 1 H -0.803504 11.8192 11.4111
404 1 H 0.949018 11.7544 11.8435
405 1 H 0.738627 9.79418 12.3423
406 2 C 0.7633 10.4065 -0.532169
407 2 C 1.61791 9.46528 17.5508
408 4 O 1.06613 9.10438 16.2968
409 1 H 0.70127 11.4596 -0.882579
410 1 H -0.228406 9.93441 -0.476119
411 1 H 1.22722 10.5213 0.440608
412 1 H 1.723 8.6203 -0.624669
413 1 H 2.59127 9.95774 17.4491
414 1 H 1.10238 8.14903 16.1057
415 2 C 8.38864 7.15548 5.16443
416 2 C 8.96596 8.37397 5.9196
417 4 O 10.2696 8.78615 5.52057
418 1 H 8.88798 6.22857 5.41485
419 1 H 7.3479 7.00584 5.30374
420 1 H 8.59815 7.37844 4.12132
421 1 H 9.0339 8.19573 6.99827
422 1 H 8.30867 9.2594 5.79916
423 1 H 10.6284 8.43245 4.6846
424 2 C 4.60152 13.707 3.04985
425 2 C 3.13428 14.1627 3.17908
426 4 O 2.71531 14.1037 4.53458
427 1 H 4.73993 12.8043 3.711
428 1 H 4.92134 13.3674 2.03327
429 1 H 5.29012 14.4972 3.37359
430 1 H 2.36858 13.5749 2.55606
431 1 H 2.95039 15.223 2.96546
432 1 H 2.8639 13.1707 4.75376
433 2 C -0.413261 4.41717 11.1356
434 2 C -1.00124 3.75141 9.85712
435 4 O -0.560067 4.40842 8.6799
436 1 H -0.602377 5.50581 11.1838
437 1 H -0.964232 4.13913 12.0292
438 1 H 0.63505 4.31441 11.2971
439 1 H 16.856 3.80261 9.94836
440 1 H -0.849579 2.69183 9.88721
441 1 H -0.039502 5.26522 8.80042
442 2 C 14.4807 2.35948 -0.169696
443 2 C 14.931 3.24085 17.6561
444 4 O 13.9168 3.02855 16.6907
445 1 H 14.5107 1.30212 -0.498718
446 1 H 15.1261 2.48531 0.735895
447 1 H 13.4515 2.61456 0.11493
448 1 H 15.9191 2.89143 17.3511
449 1 H 15.0217 4.29536 17.9728
450 1 H 14.1025 3.52008 15.891
ITEM: TIMESTEP
6300
ITEM: NUMBER OF ATOMS
450
ITEM: BOX BOUNDS pp pp pp
-1.0271633077624429e+00 1.7952163307762412e+01
-1.0271633077624429e+00 1.7952163307762412e+01
-1.0271633077624429e+00 1.7952163307762412e+01
ITEM: ATOMS id type element x y z
1 2 C 12.8448 6.12369 3.50367
2 2 C 11.7633 6.67118 2.60933
3 4 O 11.669 8.10336 2.8966
4 1 H 12.6277 5.08696 3.6942
5 1 H 13.8351 6.2462 3.07521
6 1 H 12.8423 6.60382 4.49923
7 1 H 10.7615 6.27606 2.7661
8 1 H 12.0116 6.45561 1.56416
9 1 H 11.465 8.65225 2.12098
10 2 C 12.5406 12.7854 16.4981
11 2 C 13.9558 13.086 17.0445
12 4 O 14.0966 13.4256 -0.543703
13 1 H 11.9219 13.6875 16.5485
14 1 H 12.5943 12.4041 15.4882
15 1 H 12.0514 12.0143 17.0902
16 1 H 14.345 13.8867 16.5162
17 1 H 14.5266 12.1951 16.8193
18 1 H 14.4317 12.6903 -0.0431391
19 2 C 13.9185 -0.0965719 2.79766
20 2 C 13.7039 0.684875 4.08573
21 4 O 12.7077 1.68624 3.88752
22 1 H 14.6646 0.498634 2.27098
23 1 H 14.3657 17.9479 3.12787
24 1 H 13.0474 -0.345819 2.21881
25 1 H 14.6837 1.17829 4.33191
26 1 H 13.3442 -0.0236115 4.85005
27 1 H 11.8625 1.23298 3.85836
28 2 C 16.3151 7.7976 9.71282
29 2 C 16.4895 9.1383 9.00905
30 4 O 16.3395 9.02466 7.55631
31 1 H 16.7377 6.9616 9.12054
32 1 H 16.8729 7.80851 10.6703
33 1 H 15.2506 7.59341 9.81882
34 1 H 17.4638 9.5521 9.13386
35 1 H 15.8168 9.89308 9.44946
36 1 H 15.4932 9.43013 7.35292
37 2 C 2.92337 1.03113 10.6262
38 2 C 2.92466 2.14337 11.5684
39 4 O 2.58465 3.27162 11.3398
40 1 H 3.84187 1.13956 10.0955
41 1 H 2.97439 0.043251 11.0881
42 1 H 1.97947 1.1146 10.0405
43 1 H 3.38127 1.94095 12.49
44 1 H 17.6154 15.1209 17.784
45 1 H 8.29536 6.14787 8.85779
46 2 C 8.52866 14.0646 5.74422
47 2 C 9.03114 14.6023 7.09218
48 4 O 9.72372 13.6757 7.93162
49 1 H 7.72005 14.6786 5.33871
50 1 H 9.31727 13.9713 4.9913
51 1 H 8.14832 13.0685 5.98414
52 1 H 8.24229 15.0015 7.73093
53 1 H 9.74046 15.4102 6.84948
54 1 H 10.2964 13.1416 7.38253
55 2 C 16.734 3.68801 14.3541
56 2 C 15.8638 4.68771 13.7617
57 4 O 14.5237 4.49292 14.1984
58 1 H 16.8093 2.72562 13.745
59 1 H 17.8081 4.02308 14.4168
60 1 H 16.3862 3.36547 15.3275
61 1 H 15.8531 4.92847 12.6805
62 1 H 15.9764 5.65893 14.1615
63 1 H 14.0497 3.73113 13.818
64 2 C 10.621 10.5862 11.3856
65 2 C 9.55298 9.51892 11.2407
66 4 O 10.0855 8.3786 10.5313
67 1 H 11.071 10.7419 10.4158
68 1 H 10.2643 11.5188 11.7477
69 1 H 11.42 10.2946 12.1048
70 1 H 8.63839 9.79513 10.7277
71 1 H 9.298 9.11279 12.1951
72 1 H 10.7569 8.63846 9.92583
73 2 C 5.27537 3.67818 8.07933
74 2 C 5.6207 5.06434 7.56953
75 4 O 5.82406 6.03167 8.55428
76 1 H 4.38974 3.72876 8.73393
77 1 H 5.02137 2.99179 7.28301
78 1 H 6.17437 3.42398 8.60403
79 1 H 4.78432 5.47055 7.00831
80 1 H 6.48375 4.91654 6.94214
81 1 H 6.27776 5.60277 9.27845
82 2 C 3.65008 10.9403 12.7228
83 2 C 2.95835 10.5036 14.0388
84 4 O 1.59792 10.0824 13.7538
85 1 H 3.83501 10.1373 12.0115
86 1 H 2.90048 11.5766 12.1978
87 1 H 4.45978 11.6116 12.9082
88 1 H 2.9787 11.4043 14.7088
89 1 H 3.58246 9.74017 14.4951
90 1 H 1.33969 9.64254 14.5778
91 2 C 10.0243 2.82297 15.2893
92 2 C 11.0988 3.92834 14.6312
93 4 O 12.2637 3.1478 14.0654
94 1 H 9.1836 3.37527 15.6803
95 1 H 9.69891 2.23115 14.4016
96 1 H 10.4547 2.30724 16.1821
97 1 H 11.6617 4.54369 15.3228
98 1 H 10.6865 4.43143 13.6906
99 1 H 11.7768 2.47695 13.5173
100 2 C 6.85199 14.3849 10.2892
101 2 C 6.9183 14.284 11.8096
102 4 O 8.2096 13.8081 12.2463
103 1 H 7.33876 13.5122 9.82245
104 1 H 5.80729 14.5486 10.0122
105 1 H 7.43489 15.2752 9.96517
106 1 H 6.17985 13.5617 12.1449
107 1 H 6.75817 15.2424 12.3031
108 1 H 8.21769 12.88 11.9542
109 2 C 4.53511 17.0221 7.38111
110 2 C 5.19606 16.2238 6.27
111 4 O 4.90903 14.842 6.18222
112 1 H 3.5545 17.4116 7.1481
113 1 H 4.30033 16.3531 8.17766
114 1 H 5.07295 17.9117 7.73428
115 1 H 6.30677 16.3193 6.45626
116 1 H 4.97225 16.6659 5.31317
117 1 H 4.04394 14.7407 5.76321
118 2 C 2.74438 7.67881 8.15837
119 2 C 2.23003 7.8859 9.55147
120 4 O 0.885433 7.42019 9.63936
121 1 H 2.19736 8.19704 7.38303
122 1 H 3.77213 8.01185 8.09415
123 1 H 2.70801 6.62006 7.88911
124 1 H 2.23158 8.91556 9.92848
125 1 H 2.79298 7.23276 10.2748
126 1 H 0.469955 8.1121 10.1629
127 2 C 7.47168 -0.922664 16.088
128 2 C 6.55084 -0.942802 14.854
129 4 O 6.66587 16.9681 13.9367
130 1 H 7.11803 -0.107828 16.7526
131 1 H 7.35484 17.1663 16.6045
132 1 H 8.50291 -0.740339 15.7806
133 1 H 6.63844 0.0159458 14.3098
134 1 H 5.4957 -0.935513 15.1854
135 1 H 7.40209 17.208 13.3421
136 2 C 7.05375 10.8878 2.3552
137 2 C 8.37339 11.5478 2.95197
138 4 O 9.49562 11.6243 2.00945
139 1 H 7.11955 9.82927 2.08817
140 1 H 6.28838 11.1078 3.0829
141 1 H 6.78224 11.3681 1.40223
142 1 H 8.69999 10.9879 3.8711
143 1 H 8.31986 12.5757 3.26888
144 1 H 9.39083 12.4363 1.50693
145 2 C 9.22166 0.869295 3.21485
146 2 C 9.57201 -0.650551 3.4025
147 4 O 10.8704 -0.739701 3.93959
148 1 H 8.46292 0.81731 2.45345
149 1 H 8.63639 1.15024 4.06249
150 1 H 10.1115 1.49086 2.90875
151 1 H 9.41657 -1.16133 2.43456
152 1 H 8.83492 17.8464 4.04283
153 1 H 11.0283 17.2832 4.13774
154 2 C 0.32616 0.834116 15.4621
155 2 C 0.817893 2.25977 15.2936
156 4 O 0.91161 2.589 13.8835
157 1 H 1.14705 0.274145 15.028
158 1 H 0.205386 0.655185 16.5279
159 1 H -0.631973 0.601332 15.0304
160 1 H 1.78444 2.38568 15.7449
161 1 H 0.17907 3.01732 15.7476
162 1 H 1.50562 3.37388 13.8814
163 2 C 17.4364 10.1422 4.23738
164 2 C -0.767842 11.0684 5.16604
165 4 O 0.260197 10.3829 5.81554
166 1 H 17.2865 9.23636 4.85834
167 1 H 16.4875 10.5509 3.88328
168 1 H 17.99 9.8717 3.31819
169 1 H 17.5366 11.5927 5.89555
170 1 H -0.283507 11.8626 4.61609
171 1 H -0.0671432 9.81192 6.51951
172 2 C 12.4621 8.59378 17.3039
173 2 C 11.2186 7.96603 16.6732
174 4 O 10.2509 7.77149 17.6785
175 1 H 12.241 9.70475 17.4235
176 1 H 12.6803 8.21857 -0.665585
177 1 H 13.3566 8.56364 16.6862
178 1 H 11.442 7.01242 16.2406
179 1 H 10.8958 8.63232 15.8513
180 1 H 9.53884 7.22252 17.3366
181 2 C 0.759363 0.235007 7.59048
182 2 C 1.30491 1.50005 7.01045
183 4 O 0.276097 2.37244 6.61343
184 1 H 0.572821 -0.631433 6.98107
185 1 H 1.335 0.0253851 8.45439
186 1 H -0.171809 0.369106 8.0729
187 1 H 1.83173 1.29337 6.06705
188 1 H 1.97931 2.13283 7.59069
189 1 H -0.445012 1.80168 6.29679
190 2 C 8.14278 -0.926193 9.18851
191 2 C 7.30473 -0.815461 10.4432
192 4 O 7.93936 -1.00215 11.6889
193 1 H 7.50961 17.7228 8.33259
194 1 H 8.66863 -0.00926223 8.94115
195 1 H 8.95056 17.3157 9.24761
196 1 H 6.50393 17.4299 10.3573
197 1 H 6.75527 0.130685 10.4657
198 1 H 8.88804 -1.14217 11.6254
199 2 C 11.4021 16.3682 12.2086
200 2 C 11.2391 14.9044 11.8908
201 4 O 10.4417 14.7719 10.7158
202 1 H 12.2665 16.6705 12.8385
203 1 H 11.5119 16.9191 11.2966
204 1 H 10.4774 16.6485 12.7658
205 1 H 10.906 14.325 12.7745
206 1 H 12.2004 14.4395 11.5498
207 1 H 9.57174 14.5453 11.0178
208 2 C 3.32014 10.2525 2.3298
209 2 C 2.06508 10.3819 3.06625
210 4 O 2.13595 11.1895 4.21963
211 1 H 3.6233 11.1757 1.80728
212 1 H 4.11212 9.88148 2.99639
213 1 H 3.20254 9.46052 1.56706
214 1 H 1.8346 9.35338 3.31179
215 1 H 1.2544 10.741 2.42936
216 1 H 1.50222 10.9743 4.92876
217 2 C 15.2727 9.80793 13.8436
218 2 C 16.4478 8.99379 14.2429
219 4 O 16.024 8.16596 15.3272
220 1 H 14.3239 9.1813 13.8554
221 1 H 15.0642 10.6586 14.5162
222 1 H 15.4821 10.1589 12.855
223 1 H 17.2833 9.63063 14.5598
224 1 H 16.8115 8.36082 13.3946
225 1 H 15.118 7.84003 15.1384
226 2 C 14.9706 2.71535 7.91171
227 2 C 15.7114 1.40306 7.76338
228 4 O 16.3249 1.24835 6.43872
229 1 H 14.1228 2.86478 7.25855
230 1 H 14.6788 2.97163 8.94134
231 1 H 15.7328 3.41659 7.51036
232 1 H 15.1133 0.522274 7.89197
233 1 H 16.4689 1.38161 8.53908
234 1 H 16.2937 0.306273 6.20441
235 2 C 15.135 16.9829 -0.851626
236 2 C 16.603 16.754 17.6747
237 4 O 17.007 15.4757 17.1644
238 1 H 14.4007 16.583 17.4153
239 1 H 15.0242 16.4771 0.111022
240 1 H 14.8117 -0.923656 -0.86009
241 1 H 17.3186 17.069 -0.569119
242 1 H 16.9207 17.311 16.7986
243 1 H 0.0422749 3.61772 8.22662
244 2 C 11.7172 14.4094 2.30189
245 2 C 12.666 14.9319 3.42886
246 4 O 12.0128 15.3133 4.58609
247 1 H 11.8744 14.6032 1.26008
248 1 H 11.4332 13.3069 2.46686
249 1 H 10.7646 14.8533 2.38622
250 1 H 13.3804 15.7025 3.24307
251 1 H 13.4817 14.1682 3.72731
252 1 H 11.5208 14.6554 5.02988
253 2 C 17.3643 6.63713 -0.488609
254 2 C 17.9277 5.78535 17.4602
255 4 O -0.235983 6.47751 16.5679
256 1 H 16.7718 7.36192 -1.0769
257 1 H 16.8136 5.99287 0.216562
258 1 H -0.812092 7.18037 0.047148
259 1 H 17.1752 5.20051 16.9216
260 1 H -0.407214 5.00312 17.9092
261 1 H -0.707141 6.7966 15.7782
262 2 C 17.4973 17.4479 3.5397
263 2 C -0.360099 16.4552 3.80583
264 4 O 0.857391 17.1042 3.78578
265 1 H 17.5462 -0.785279 4.38313
266 1 H 17.7425 18.0424 2.67627
267 1 H 16.4628 17.1449 3.62967
268 1 H -0.420495 15.6901 2.99844
269 1 H -0.546267 15.9927 4.80132
270 1 H 1.53645 16.49 4.16279
271 2 C 12.0849 17.4189 15.51
272 2 C 12.3343 -0.0799926 15.3657
273 4 O 13.5069 0.197129 16.0735
274 1 H 12.517 17.2044 16.4946
275 1 H 11.0117 17.1506 15.4719
276 1 H 12.5751 16.9093 14.6976
277 1 H 11.5311 0.554013 15.7269
278 1 H 12.5735 0.215735 14.3361
279 1 H 13.7797 1.19818 15.9493
280 2 C 8.75522 2.8519 6.55105
281 2 C 9.39364 3.24856 7.87678
282 4 O 8.43381 3.97342 8.62359
283 1 H 8.61894 3.78508 5.96755
284 1 H 9.46568 2.2038 6.0314
285 1 H 7.78409 2.3655 6.67411
286 1 H 10.3083 3.80847 7.7478
287 1 H 9.67118 2.36545 8.42518
288 1 H 8.921 4.25396 9.41921
289 2 C 7.22932 6.19961 11.9303
290 2 C 8.62014 5.52764 12.106
291 4 O 9.2415 5.51857 10.8451
292 1 H 6.62447 5.6265 11.2437
293 1 H 6.75555 6.07828 12.9105
294 1 H 7.28111 7.25611 11.6462
295 1 H 8.48844 4.50803 12.407
296 1 H 9.19543 6.04737 12.8764
297 1 H 9.67532 6.3532 10.7058
298 2 C 13.039 10.5629 5.76862
299 2 C 12.2238 11.8057 5.95737
300 4 O 11.2733 11.574 7.02834
301 1 H 13.9732 10.6478 5.23819
302 1 H 13.3017 10.2044 6.74996
303 1 H 12.4139 9.80532 5.33035
304 1 H 11.6921 12.0528 4.99422
305 1 H 12.7259 12.7288 6.18146
306 1 H 10.6416 10.9345 6.67267
307 2 C 13.0497 7.09809 12.1374
308 2 C 12.4611 7.23479 13.5426
309 4 O 13.5028 6.89215 14.4807
310 1 H 13.3644 6.1086 11.9567
311 1 H 12.1754 7.2666 11.5128
312 1 H 13.7919 7.86956 12.0175
313 1 H 11.6016 6.59662 13.7501
314 1 H 12.1147 8.24917 13.746
315 1 H 13.8084 5.98398 14.408
316 2 C 4.43066 11.3471 8.43047
317 2 C 5.73318 11.045 7.75857
318 4 O 6.33755 12.3073 7.41239
319 1 H 4.48816 11.2938 9.52928
320 1 H 4.21601 12.3913 8.21604
321 1 H 3.62961 10.7024 8.11864
322 1 H 5.54018 10.4491 6.91436
323 1 H 6.42338 10.4837 8.40105
324 1 H 5.68682 12.9319 7.0636
325 2 C 17.6123 -0.828436 10.8653
326 2 C -0.866137 -0.0860882 12.0459
327 4 O -0.437674 1.18826 11.7026
328 1 H -0.53182 -0.85449 10.2035
329 1 H 17.401 17.1042 11.1139
330 1 H 16.7891 -0.328643 10.4012
331 1 H 0.0283676 -0.66274 12.3861
332 1 H 17.4471 -0.0324176 12.9135
333 1 H -0.19082 1.76112 12.4695
334 2 C 3.52724 6.53951 13.5383
335 2 C 3.12911 5.98677 14.8728
336 4 O 2.09343 5.07409 14.8415
337 1 H 4.45294 7.08682 13.6726
338 1 H 3.59609 5.7845 12.7502
339 1 H 2.78011 7.23747 13.2251
340 1 H 2.88962 6.84766 15.5306
341 1 H 4.02967 5.50698 15.3106
342 1 H 1.47346 5.25706 15.5299
343 2 C 6.06949 13.1817 16.3213
344 2 C 5.24504 14.2996 15.7514
345 4 O 4.28009 13.7474 14.7829
346 1 H 6.53004 13.5542 17.1974
347 1 H 5.3687 12.4016 16.6734
348 1 H 6.77188 12.8151 15.634
349 1 H 5.83851 15.1425 15.4529
350 1 H 4.64065 14.6534 16.5789
351 1 H 3.58012 14.3959 14.674
352 2 C 6.40159 2.27782 13.0479
353 2 C 5.51946 2.80447 14.1909
354 4 O 6.07726 3.83031 14.9912
355 1 H 7.34462 1.91185 13.4601
356 1 H 5.83376 1.47357 12.5714
357 1 H 6.60442 3.03967 12.2864
358 1 H 5.21893 2.01224 14.8734
359 1 H 4.56368 3.1508 13.8317
360 1 H 6.79755 4.20454 14.4903
361 2 C 12.5804 16.1835 8.39845
362 2 C 13.5609 15.1191 7.8916
363 4 O 13.1694 13.8486 8.34924
364 1 H 12.4681 16.1364 9.48339
365 1 H 12.8087 17.2145 8.16138
366 1 H 11.5601 16.0778 7.99519
367 1 H 14.5613 15.3015 8.26976
368 1 H 13.5465 15.1125 6.79841
369 1 H 12.2471 13.9225 8.69323
370 2 C 12.3355 6.71303 8.33955
371 2 C 12.6247 8.03223 7.67962
372 4 O 11.8458 9.00902 8.34044
373 1 H 11.2415 6.61486 8.31841
374 1 H 12.7242 5.83302 7.77352
375 1 H 12.7351 6.77277 9.32475
376 1 H 12.3461 7.9881 6.62883
377 1 H 13.6728 8.24634 7.68835
378 1 H 11.5532 9.64049 7.68283
379 2 C 1.12719 5.14306 5.12775
380 2 C 1.5276 6.36345 4.33938
381 4 O 0.518288 7.37436 4.51412
382 1 H 0.282225 4.63144 4.67476
383 1 H 2.0102 4.50008 5.13628
384 1 H 0.902148 5.39359 6.17076
385 1 H 1.53147 6.00657 3.29999
386 1 H 2.51995 6.8 4.60221
387 1 H 0.659299 8.01232 3.80032
388 2 C 15.8356 13.3002 12.8794
389 2 C 15.2197 14.3465 11.9053
390 4 O 14.2781 13.7035 11.0581
391 1 H 16.6387 12.7205 12.3893
392 1 H 16.249 13.822 13.7554
393 1 H 15.1086 12.5687 13.2296
394 1 H 15.9945 14.8468 11.3225
395 1 H 14.6761 15.1047 12.507
396 1 H 14.433 13.9801 10.146
397 2 C 0.411023 11.5169 9.74591
398 2 C -0.0268446 11.0199 11.0897
399 4 O 0.181371 9.63112 11.3262
400 1 H -0.158758 11.0921 8.94838
401 1 H 0.398258 12.6208 9.74925
402 1 H 1.44324 11.2047 9.48818
403 1 H -1.0652 11.155 11.198
404 1 H 0.404361 11.5411 11.9648
405 1 H 0.841273 9.46605 11.9655
406 2 C 0.645069 10.638 -0.714445
407 2 C 1.26624 9.35955 17.6478
408 4 O 0.871463 9.13258 16.2787
409 1 H 0.532552 11.3467 17.3957
410 1 H -0.383299 10.4764 -0.350423
411 1 H 1.22953 11.1146 0.0493197
412 1 H 1.10153 8.53303 -0.728912
413 1 H 2.3368 9.54747 17.773
414 1 H 0.401644 8.29591 16.2466
415 2 C 8.77837 6.75692 5.20712
416 2 C 8.82382 7.97655 6.12237
417 4 O 9.84329 8.94116 5.72051
418 1 H 9.80517 6.40573 5.00003
419 1 H 8.30858 5.98748 5.8354
420 1 H 8.20765 6.91038 4.27146
421 1 H 8.99458 7.64044 7.13833
422 1 H 7.87914 8.47931 6.01796
423 1 H 10.2588 8.68862 4.89837
424 2 C 4.57149 13.7473 3.06261
425 2 C 3.12945 14.0162 3.09827
426 4 O 2.51969 13.717 4.39236
427 1 H 4.78539 12.7326 2.63924
428 1 H 5.05464 14.3697 2.33251
429 1 H 5.11432 14.0025 3.91922
430 1 H 2.546 13.5227 2.36333
431 1 H 2.85569 15.0526 3.02467
432 1 H 2.57641 12.7511 4.47378
433 2 C -0.552751 4.72864 11.1764
434 2 C 17.9521 4.07845 9.90168
435 4 O -0.0184726 4.35706 8.84788
436 1 H -0.690279 5.79175 11.1535
437 1 H 17.7721 4.38492 12.0827
438 1 H 0.470252 4.5325 11.4506
439 1 H 16.9838 4.57143 9.55382
440 1 H 17.9135 3.01052 10.0452
441 1 H 0.665253 4.99699 8.97261
442 2 C 14.3762 2.3595 -0.174677
443 2 C 14.8168 3.33217 17.6917
444 4 O 14.1045 3.1487 16.4551
445 1 H 14.793 1.40714 -0.416385
446 1 H 14.7461 2.64272 0.782829
447 1 H 13.2944 2.29165 -0.122466
448 1 H 15.8852 3.13622 17.5683
449 1 H 14.7239 4.35352 -0.950069
450 1 H 14.1898 3.96184 15.9139
ITEM: TIMESTEP
6400
ITEM: NUMBER OF ATOMS
450
ITEM: BOX BOUNDS pp pp pp
-1.0382074798814980e+00 1.7963207479881486e+01
-1.0382074798814980e+00 1.7963207479881486e+01
-1.0382074798814980e+00 1.7963207479881486e+01
ITEM: ATOMS id type element x y z
1 2 C 12.8445 6.28264 3.46297
2 2 C 11.6832 6.82146 2.63409
3 4 O 11.6841 8.23867 2.84243
4 1 H 13.2206 5.36148 3.00655
5 1 H 13.617 7.06239 3.50603
6 1 H 12.4921 6.10321 4.49298
7 1 H 10.7129 6.40478 2.95315
8 1 H 11.8494 6.52276 1.60113
9 1 H 10.9241 8.65082 2.39553
10 2 C 12.7319 13.0387 16.7036
11 2 C 14.2029 13.0571 17.0811
12 4 O 14.3452 13.6915 -0.678591
13 1 H 12.4509 14.1107 16.6125
14 1 H 12.6051 12.4917 15.7627
15 1 H 12.0895 12.6286 17.4855
16 1 H 14.7336 13.6933 16.3091
17 1 H 14.6896 12.0724 17.0506
18 1 H 13.9283 13.1249 -0.0226962
19 2 C 13.6054 -0.280916 3.03065
20 2 C 13.7569 0.765295 4.11583
21 4 O 12.6423 1.60405 4.14517
22 1 H 13.4096 0.209297 2.04646
23 1 H 14.4991 -0.925305 2.93525
24 1 H 12.699 -0.874499 3.22204
25 1 H 14.5905 1.39191 3.87639
26 1 H 13.9278 0.297301 5.07136
27 1 H 11.8505 1.12036 4.06952
28 2 C 16.0015 7.51306 9.72571
29 2 C 16.2912 8.75687 8.92167
30 4 O 15.984 8.56063 7.54438
31 1 H 16.826 6.82945 9.61153
32 1 H 15.9992 7.72701 10.805
33 1 H 15.0254 7.11029 9.51833
34 1 H 17.3766 9.06321 8.95014
35 1 H 15.6909 9.59188 9.26489
36 1 H 16.7476 8.88577 7.06972
37 2 C 2.62049 0.951442 10.6599
38 2 C 2.35377 2.16967 11.5419
39 4 O 2.64096 3.32344 11.3045
40 1 H 3.20784 1.10077 9.72162
41 1 H 3.29007 0.365225 11.2942
42 1 H 1.78064 0.312421 10.6691
43 1 H 2.01677 1.85113 12.6151
44 1 H 16.4676 15.1413 -0.890142
45 1 H 9.24814 6.19734 9.01811
46 2 C 8.33983 14.0069 6.00443
47 2 C 8.99267 14.6743 7.21333
48 4 O 9.8919 13.8712 7.92825
49 1 H 7.51687 14.6145 5.62231
50 1 H 9.05131 13.9111 5.18235
51 1 H 8.05441 13.0043 6.26302
52 1 H 8.31137 15.119 7.959
53 1 H 9.52069 15.5554 6.83527
54 1 H 10.0419 13.0901 7.3729
55 2 C 16.8321 3.71906 14.3871
56 2 C 15.8336 4.79942 14.096
57 4 O 14.4075 4.4167 14.429
58 1 H 16.8612 3.10917 13.4898
59 1 H 17.7616 4.12529 14.5037
60 1 H 16.6974 3.06932 15.2632
61 1 H 15.7213 4.89507 13.0235
62 1 H 15.9562 5.82049 14.4457
63 1 H 14.0437 4.11901 13.5725
64 2 C 10.6078 10.4207 11.4581
65 2 C 9.54749 9.41977 11.0094
66 4 O 10.0273 8.20027 10.4955
67 1 H 11.2784 10.7199 10.6579
68 1 H 10.1718 11.3321 11.8713
69 1 H 11.2147 9.93674 12.2311
70 1 H 8.83087 9.77624 10.2579
71 1 H 8.94566 9.16013 11.9014
72 1 H 10.7435 8.31784 9.80192
73 2 C 5.07949 3.79631 7.85212
74 2 C 5.50399 5.20159 7.42501
75 4 O 6.08033 5.93796 8.50053
76 1 H 4.22641 3.80755 8.51697
77 1 H 4.75632 3.20027 6.97808
78 1 H 5.95836 3.32119 8.35727
79 1 H 4.67979 5.77488 7.01627
80 1 H 6.26172 5.05465 6.62927
81 1 H 6.98608 5.62896 8.53924
82 2 C 3.50827 10.8484 12.9191
83 2 C 2.70162 10.5662 14.1257
84 4 O 1.60239 9.78649 13.7363
85 1 H 3.54936 9.96749 12.2988
86 1 H 3.12341 11.6635 12.3663
87 1 H 4.58238 11.1101 13.2611
88 1 H 2.31044 11.532 14.4387
89 1 H 3.35379 10.1173 14.8822
90 1 H 1.223 9.49787 14.5822
91 2 C 9.71602 3.01449 15.326
92 2 C 10.7633 3.85458 14.8049
93 4 O 11.6886 3.16661 13.9258
94 1 H 8.87347 3.55532 15.8134
95 1 H 9.36165 2.5097 14.4649
96 1 H 10.2388 2.35162 15.9352
97 1 H 11.4286 4.19895 15.561
98 1 H 10.4759 4.70957 14.2268
99 1 H 11.1161 2.67501 13.343
100 2 C 6.83259 14.2164 10.1765
101 2 C 6.88282 14.3176 11.6806
102 4 O 8.08597 13.7644 12.1574
103 1 H 6.73398 13.1755 9.95139
104 1 H 5.94901 14.7147 9.77785
105 1 H 7.73256 14.5468 9.69994
106 1 H 6.01215 13.7715 12.1002
107 1 H 6.81811 15.3068 12.0519
108 1 H 7.99605 12.81 12.1277
109 2 C 4.62158 16.8623 7.51962
110 2 C 5.38545 16.1449 6.40783
111 4 O 4.94137 14.7503 6.42381
112 1 H 3.52067 16.7759 7.5042
113 1 H 5.02968 16.658 8.52533
114 1 H 4.71416 17.9472 7.35198
115 1 H 6.46463 16.1962 6.55183
116 1 H 5.1005 16.5616 5.41358
117 1 H 4.12737 14.7815 5.89544
118 2 C 3.04423 7.33203 8.29096
119 2 C 2.1942 7.80278 9.43385
120 4 O 0.823582 7.49534 9.18622
121 1 H 3.07208 8.08774 7.45744
122 1 H 4.07891 7.10484 8.54638
123 1 H 2.60237 6.51547 7.70003
124 1 H 2.28405 8.84828 9.64634
125 1 H 2.41988 7.33295 10.3537
126 1 H 0.391108 8.149 9.74574
127 2 C 7.58951 -0.906732 16.229
128 2 C 6.68549 -0.758263 15.0258
129 4 O 6.91248 17.2017 14.0396
130 1 H 7.25793 -0.137762 16.9538
131 1 H 7.3395 17.1137 16.7167
132 1 H 8.63757 -0.876025 15.9815
133 1 H 6.83561 0.200221 14.5608
134 1 H 5.65572 -0.783144 15.3411
135 1 H 7.27369 17.6737 13.2692
136 2 C 6.96771 10.8124 2.33736
137 2 C 8.08232 11.4016 3.07592
138 4 O 9.25644 11.5309 2.23246
139 1 H 7.29677 9.931 1.76123
140 1 H 6.15175 10.5293 3.02885
141 1 H 6.63393 11.5758 1.66076
142 1 H 8.34216 10.7865 3.91964
143 1 H 7.87897 12.4344 3.43293
144 1 H 9.15137 12.2295 1.57913
145 2 C 9.39452 0.500069 2.86585
146 2 C 9.47419 -0.741172 3.69946
147 4 O 10.9189 -0.704777 4.10256
148 1 H 8.37042 0.883036 2.84219
149 1 H 9.96007 1.20208 3.47609
150 1 H 9.9433 0.356377 1.94667
151 1 H 9.31842 17.3106 3.13082
152 1 H 8.96103 -0.664538 4.69771
153 1 H 11.0862 17.5229 4.60389
154 2 C 0.327612 0.889414 15.4659
155 2 C 0.960475 2.29161 15.3684
156 4 O 0.736502 2.78718 14.0548
157 1 H 0.96094 0.183603 14.9335
158 1 H 0.284978 0.702441 16.5365
159 1 H -0.716099 0.856452 15.1152
160 1 H 2.05427 2.26404 15.5544
161 1 H 0.581329 3.01691 16.0965
162 1 H 1.33077 3.5275 13.9552
163 2 C 17.7777 10.1965 3.90418
164 2 C -0.690654 10.9671 5.08629
165 4 O 0.353194 10.2735 5.81675
166 1 H 17.2743 9.2909 4.19399
167 1 H 17.0459 10.8717 3.47692
168 1 H -0.490354 10.0046 3.15459
169 1 H 17.5232 11.2236 5.77378
170 1 H -0.177484 11.8276 4.68036
171 1 H 0.220807 9.32364 5.71993
172 2 C 12.4517 8.44251 17.2632
173 2 C 11.1868 7.87393 16.7789
174 4 O 10.2975 7.7579 17.8512
175 1 H 12.3852 9.25261 17.9475
176 1 H 12.9828 7.6995 17.8564
177 1 H 13.0222 8.93223 16.4548
178 1 H 11.264 6.92668 16.2495
179 1 H 10.757 8.57399 16.0353
180 1 H 9.88562 6.90885 17.8558
181 2 C 0.949423 0.24868 7.87938
182 2 C 1.46617 1.43029 7.02506
183 4 O 0.379198 2.43794 6.7818
184 1 H 0.00940476 -0.12228 7.45554
185 1 H 1.71369 -0.578879 7.86368
186 1 H 0.80287 0.41055 8.9747
187 1 H 1.89296 1.04753 6.09033
188 1 H 2.17796 2.08643 7.54544
189 1 H -0.534549 2.21869 6.55116
190 2 C 8.04561 -0.717899 9.4085
191 2 C 7.11293 17.9184 10.5686
192 4 O 7.9773 17.9125 11.7131
193 1 H 7.58489 -0.3558 8.48181
194 1 H 8.68293 0.0398655 9.78101
195 1 H 8.69301 17.4531 9.11793
196 1 H 6.60063 16.9732 10.3897
197 1 H 6.38613 -0.311426 10.7534
198 1 H 8.39748 17.0581 11.8428
199 2 C 11.147 16.194 12.245
200 2 C 11.5278 14.7449 11.9205
201 4 O 10.6433 14.1718 10.952
202 1 H 11.9553 16.5164 12.868
203 1 H 11.2319 16.8736 11.4082
204 1 H 10.27 16.3827 12.8493
205 1 H 11.5408 14.1442 12.8215
206 1 H 12.4836 14.7341 11.445
207 1 H 9.77492 14.1613 11.3681
208 2 C 3.33633 10.2125 2.15336
209 2 C 2.03576 10.2614 2.9074
210 4 O 2.18263 11.1049 4.06888
211 1 H 3.69386 11.21 1.91604
212 1 H 4.11486 9.78232 2.74586
213 1 H 3.23197 9.60708 1.25805
214 1 H 1.86174 9.23994 3.3061
215 1 H 1.1856 10.5999 2.29784
216 1 H 1.52403 11 4.75668
217 2 C 15.5003 9.94201 13.6556
218 2 C 16.5305 8.86445 13.9573
219 4 O 16.222 8.16119 15.1981
220 1 H 14.6801 9.43356 13.1062
221 1 H 15.1955 10.4169 14.5519
222 1 H 15.9599 10.6911 12.9832
223 1 H 17.5057 9.24194 14.0965
224 1 H 16.5756 8.15395 13.1389
225 1 H 15.2968 7.87465 15.1244
226 2 C 15.0688 2.65495 8.10089
227 2 C 15.9951 1.48217 7.96127
228 4 O 16.3639 1.16051 6.59163
229 1 H 14.1482 2.45845 7.54504
230 1 H 14.8571 2.64128 9.17009
231 1 H 15.4375 3.60022 7.78856
232 1 H 15.5171 0.582895 8.40203
233 1 H 16.9662 1.67536 8.48527
234 1 H 16.9428 0.406028 6.5445
235 2 C 15.0906 16.8515 -1.03003
236 2 C 16.5124 16.8994 17.5373
237 4 O 16.9988 15.5353 17.421
238 1 H 14.3903 16.4346 17.2201
239 1 H 15.0686 16.368 -0.0330129
240 1 H 14.7347 17.8022 -0.880816
241 1 H 17.1137 17.4587 -0.667764
242 1 H 16.6354 17.259 16.4846
243 1 H 0.529456 3.61884 8.25254
244 2 C 11.6978 14.4861 2.23378
245 2 C 12.6177 14.9021 3.31768
246 4 O 11.7827 15.3222 4.54271
247 1 H 12.3238 13.8083 1.67548
248 1 H 10.9294 13.9328 2.69108
249 1 H 11.2124 14.97 1.3522
250 1 H 13.4141 15.5782 3.15268
251 1 H 13.0649 13.9512 3.61872
252 1 H 11.3502 14.5086 4.82766
253 2 C 17.5963 6.83593 -0.466071
254 2 C -1.02751 5.81622 17.3811
255 4 O -0.215813 6.44978 16.3049
256 1 H 17.0701 7.67106 -0.877056
257 1 H 16.9285 6.28076 0.17239
258 1 H -0.505573 7.12059 0.0248925
259 1 H 17.0974 5.48079 16.8431
260 1 H -0.523021 4.9788 17.8169
261 1 H -0.82868 6.98827 15.7934
262 2 C 17.8852 17.5017 3.43084
263 2 C -0.124877 16.342 3.52855
264 4 O 1.12984 16.9272 4.00946
265 1 H 17.4607 17.7068 4.42203
266 1 H -0.635422 -0.569087 3.11109
267 1 H 17.0167 17.3174 2.81074
268 1 H -0.0475596 15.7931 2.61662
269 1 H -0.476137 15.6372 4.29175
270 1 H 1.77913 16.2441 4.32484
271 2 C 11.9897 17.7498 15.6203
272 2 C 12.4211 0.139231 15.1781
273 4 O 13.518 0.443046 16.018
274 1 H 11.449 17.8002 16.5625
275 1 H 11.3687 17.2787 14.8377
276 1 H 12.9103 17.1568 15.6766
277 1 H 11.6184 0.88998 15.2223
278 1 H 12.8078 0.121559 14.161
279 1 H 13.7616 1.31084 15.9756
280 2 C 8.5958 2.80495 6.41515
281 2 C 9.15347 2.96279 7.81939
282 4 O 8.26791 3.93098 8.4167
283 1 H 8.44162 3.78691 5.99771
284 1 H 9.30053 2.26798 5.7926
285 1 H 7.63989 2.25954 6.42458
286 1 H 10.2207 3.29841 7.82114
287 1 H 9.11159 1.98599 8.36795
288 1 H 8.61989 4.03255 9.29861
289 2 C 7.30001 6.24078 11.9708
290 2 C 8.43978 5.30386 12.0751
291 4 O 9.29448 5.54646 10.8988
292 1 H 6.95776 6.05669 10.9387
293 1 H 6.53603 6.10733 12.7199
294 1 H 7.69565 7.25042 11.9528
295 1 H 8.12944 4.23382 11.9737
296 1 H 8.99856 5.39844 13.0281
297 1 H 9.66987 6.46325 10.964
298 2 C 13.1887 10.5469 5.31861
299 2 C 12.3383 11.7198 5.88341
300 4 O 11.2325 11.3828 6.75389
301 1 H 13.7921 10.8965 4.45804
302 1 H 13.96 10.1718 6.00329
303 1 H 12.5937 9.70219 5.01125
304 1 H 11.9841 12.2933 5.05808
305 1 H 12.9321 12.3691 6.56471
306 1 H 10.8101 10.5274 6.54874
307 2 C 13.2906 7.4015 12.2082
308 2 C 12.706 7.58234 13.5724
309 4 O 13.6414 7.36391 14.5899
310 1 H 13.1533 6.35517 11.8491
311 1 H 12.8128 8.12766 11.5565
312 1 H 14.372 7.63646 12.3552
313 1 H 11.8663 6.8995 13.807
314 1 H 12.3467 8.58776 13.7143
315 1 H 13.8432 6.42021 14.7324
316 2 C 4.45674 11.6227 8.59059
317 2 C 5.83249 11.1213 8.02233
318 4 O 6.48798 12.0103 7.17752
319 1 H 4.19736 10.9544 9.40189
320 1 H 4.59564 12.6358 8.94457
321 1 H 3.62492 11.5729 7.87126
322 1 H 5.58832 10.1822 7.43415
323 1 H 6.48764 10.9166 8.86514
324 1 H 5.88728 12.687 6.86298
325 2 C 17.7059 -0.843077 10.7443
326 2 C -0.864387 -0.150605 12.0404
327 4 O -0.591344 1.25102 11.7838
328 1 H -0.618335 -0.828272 9.8869
329 1 H 17.452 17.1202 10.9523
330 1 H 16.7384 -0.359829 10.4324
331 1 H 0.0531545 -0.589163 12.3852
332 1 H 17.4139 -0.329526 12.8502
333 1 H -0.351733 1.77891 12.533
334 2 C 3.45359 6.5671 13.6842
335 2 C 3.09846 5.9835 15.0506
336 4 O 1.85918 5.26267 14.9452
337 1 H 4.35735 7.16143 13.6991
338 1 H 3.59429 5.79636 12.8814
339 1 H 2.59336 7.22495 13.4496
340 1 H 3.01984 6.80228 15.7162
341 1 H 3.89063 5.32891 15.4242
342 1 H 1.19438 5.70492 15.4743
343 2 C 5.94063 13.1422 16.1429
344 2 C 5.1688 14.3927 15.6452
345 4 O 4.32875 14.0933 14.5494
346 1 H 6.46578 13.3293 17.1276
347 1 H 5.25046 12.2498 16.3263
348 1 H 6.62737 12.833 15.3311
349 1 H 5.91647 15.1435 15.306
350 1 H 4.49019 14.7913 16.4541
351 1 H 4.54307 14.723 13.8704
352 2 C 6.04462 2.20815 13.1187
353 2 C 5.2692 3.00148 14.1721
354 4 O 6.1712 3.86422 14.8674
355 1 H 6.93459 1.94341 13.6687
356 1 H 5.58497 1.28811 12.7917
357 1 H 6.21657 2.84454 12.246
358 1 H 4.837 2.35716 14.9345
359 1 H 4.47722 3.61959 13.6968
360 1 H 6.06029 4.756 14.5034
361 2 C 13.1249 16.5394 8.56815
362 2 C 13.3458 15.3338 7.74471
363 4 O 13.4671 14.1193 8.54347
364 1 H 13.8642 16.6275 9.37534
365 1 H 13.0836 17.4424 7.9749
366 1 H 12.1624 16.5046 9.10893
367 1 H 14.3291 15.4127 7.2265
368 1 H 12.5964 15.1927 6.98087
369 1 H 12.6129 14.0005 8.9436
370 2 C 12.3392 6.66962 7.92616
371 2 C 12.7711 8.0882 7.60311
372 4 O 12.0186 8.95133 8.51847
373 1 H 11.3858 6.36389 7.52823
374 1 H 13.0475 6.05475 7.39493
375 1 H 12.4511 6.43531 8.97667
376 1 H 12.5296 8.28113 6.5644
377 1 H 13.8573 8.17914 7.69841
378 1 H 11.9651 9.87054 8.18358
379 2 C 0.820087 5.25469 5.25401
380 2 C 1.20608 6.28877 4.17787
381 4 O 0.198245 7.31028 4.25204
382 1 H 0.0533659 4.5812 4.83659
383 1 H 1.6078 4.58304 5.51441
384 1 H 0.372322 5.79109 6.08868
385 1 H 1.22399 5.7711 3.23579
386 1 H 2.18122 6.74898 4.31414
387 1 H 0.379866 7.92144 3.52271
388 2 C 16.0762 13.4472 12.8995
389 2 C 15.4457 14.3936 11.8926
390 4 O 14.6301 13.5987 11.1102
391 1 H 16.6002 12.6791 12.336
392 1 H 16.8054 13.8749 13.5541
393 1 H 15.2738 12.9454 13.4396
394 1 H 16.1616 15.0035 11.3217
395 1 H 14.8044 15.0447 12.4672
396 1 H 14.4578 14.0078 10.2815
397 2 C 0.324198 11.5393 9.85572
398 2 C -0.365873 10.7046 10.9502
399 4 O 0.225734 9.45636 11.2111
400 1 H -0.131383 11.4119 8.86079
401 1 H 0.414116 12.5805 10.0932
402 1 H 1.32353 11.1179 9.77972
403 1 H 17.5699 10.4824 10.6406
404 1 H -0.498369 11.262 11.8766
405 1 H 0.801845 9.49436 12.0321
406 2 C 0.52732 10.8107 -1.04378
407 2 C 1.1633 9.45277 17.6697
408 4 O 0.551545 9.13631 16.4514
409 1 H 1.01563 11.528 17.3583
410 1 H -0.490725 10.887 17.6564
411 1 H 0.581977 11.0778 0.0165015
412 1 H 0.992861 8.66414 -0.504184
413 1 H 2.24551 9.67829 17.6701
414 1 H 0.537384 8.18973 16.2999
415 2 C 9.28897 6.60938 5.42659
416 2 C 9.01007 7.78023 6.38273
417 4 O 9.29701 9.02025 5.70481
418 1 H 10.3349 6.36862 5.49658
419 1 H 8.66366 5.76887 5.76593
420 1 H 9.01645 6.83368 4.41617
421 1 H 9.56815 7.63956 7.32571
422 1 H 7.95688 7.81841 6.67232
423 1 H 10.0386 8.88896 5.10631
424 2 C 4.6293 13.7805 2.94158
425 2 C 3.17432 14.1882 3.0185
426 4 O 2.53616 13.9703 4.28924
427 1 H 4.8615 12.7482 2.86438
428 1 H 5.09564 14.2333 2.06143
429 1 H 5.25108 14.1955 3.74322
430 1 H 2.49999 13.6347 2.35537
431 1 H 2.95318 15.2202 2.81179
432 1 H 2.52134 13.0257 4.49012
433 2 C -0.523524 4.99457 11.0666
434 2 C -0.779733 4.26273 9.72426
435 4 O 0.359399 4.34099 8.91145
436 1 H -0.417148 6.07443 11.0183
437 1 H 17.6016 4.65858 11.6866
438 1 H 0.303553 4.51309 11.5839
439 1 H 17.4002 4.6052 9.17194
440 1 H -0.907506 3.18129 9.94065
441 1 H 0.821068 5.16162 8.90767
442 2 C 14.2682 2.43737 -0.113554
443 2 C 14.6286 3.41673 17.7765
444 4 O 14.178 2.98773 16.5537
445 1 H 14.4911 1.3966 -0.418067
446 1 H 14.8851 2.67797 0.74782
447 1 H 13.2048 2.50499 0.161825
448 1 H 15.7153 3.59794 17.752
449 1 H 14.1398 4.3872 -0.99423
450 1 H 14.1967 3.57784 15.8026
ITEM: TIMESTEP
6500
ITEM: NUMBER OF ATOMS
450
ITEM: BOX BOUNDS pp pp pp
-1.0448428892365555e+00 1.7969842889236542e+01
-1.0448428892365555e+00 1.7969842889236542e+01
-1.0448428892365555e+00 1.7969842889236542e+01
ITEM: ATOMS id type element x y z
1 2 C 12.8244 6.40195 3.43553
2 2 C 11.7742 7.11635 2.54257
3 4 O 11.3667 8.37036 3.02987
4 1 H 12.8783 5.34 3.19364
5 1 H 13.7875 6.85424 3.28359
6 1 H 12.511 6.5884 4.42206
7 1 H 10.913 6.47229 2.4791
8 1 H 12.2252 7.17323 1.5339
9 1 H 11.111 8.87711 2.25892
10 2 C 12.8931 13.2805 16.7583
11 2 C 14.3202 13.0092 17.1783
12 4 O 14.7227 13.8648 -0.739201
13 1 H 12.7282 14.339 16.804
14 1 H 12.8061 12.9694 15.7147
15 1 H 12.1945 12.7975 17.4229
16 1 H 15.0118 13.2745 16.3676
17 1 H 14.5427 11.9735 17.4128
18 1 H 13.9054 14.0992 -0.281879
19 2 C 13.8136 -0.33228 3.03919
20 2 C 13.83 0.858162 4.04727
21 4 O 12.5513 1.42956 4.43116
22 1 H 12.9933 -0.290686 2.36605
23 1 H 14.6805 -0.449407 2.41817
24 1 H 13.5911 17.7452 3.575
25 1 H 14.4617 1.65957 3.6383
26 1 H 14.3563 0.590753 5.00186
27 1 H 11.9388 0.675791 4.62139
28 2 C 15.7658 7.28471 9.64538
29 2 C 16.0932 8.49401 8.80992
30 4 O 16.015 8.14854 7.43459
31 1 H 16.3785 6.47477 9.26335
32 1 H 16.0635 7.39371 10.674
33 1 H 14.6984 7.05103 9.74134
34 1 H 17.1007 8.81907 8.93805
35 1 H 15.3833 9.2956 8.98245
36 1 H 15.8324 7.20949 7.41514
37 2 C 2.6304 0.975134 10.8439
38 2 C 2.14444 2.23657 11.4744
39 4 O 2.77325 3.25402 11.2887
40 1 H 2.37122 0.903096 9.76192
41 1 H 3.72832 1.01675 10.9226
42 1 H 2.37753 0.067371 11.3583
43 1 H 1.32256 2.14381 12.0889
44 1 H 16.5188 14.871 17.3471
45 1 H 8.78721 6.46595 8.43315
46 2 C 8.6886 14.0586 5.89768
47 2 C 9.07086 14.7371 7.14133
48 4 O 10.1669 14.1078 7.78234
49 1 H 7.95827 14.6464 5.34124
50 1 H 9.60606 13.9934 5.31511
51 1 H 8.31906 13.0449 6.04215
52 1 H 8.27597 14.7479 7.86366
53 1 H 9.27172 15.7926 6.93999
54 1 H 9.85112 13.2029 7.9116
55 2 C 16.6013 3.72274 14.346
56 2 C 15.7743 5.05119 14.2201
57 4 O 14.3776 4.8075 14.4434
58 1 H 15.9676 3.00427 13.8393
59 1 H 17.5321 3.81468 13.7691
60 1 H 16.8517 3.32537 15.3653
61 1 H 15.8592 5.55572 13.2702
62 1 H 15.9978 5.80258 15.024
63 1 H 13.9718 4.22371 13.8167
64 2 C 10.5606 10.1894 11.4695
65 2 C 9.57652 9.37208 10.7098
66 4 O 10.0918 8.04565 10.4201
67 1 H 11.405 10.5516 10.8761
68 1 H 9.98969 11.0995 11.7859
69 1 H 10.9021 9.63487 12.3105
70 1 H 9.3349 9.79512 9.7395
71 1 H 8.62505 9.33086 11.2485
72 1 H 10.825 8.17453 9.83048
73 2 C 4.80126 4.02394 7.66852
74 2 C 5.63807 5.19374 7.15525
75 4 O 6.33235 5.77092 8.29275
76 1 H 4.32676 4.26956 8.6095
77 1 H 4.0552 3.76653 6.91684
78 1 H 5.3143 3.0744 7.84999
79 1 H 5.0453 5.95536 6.65798
80 1 H 6.33238 4.87002 6.3785
81 1 H 7.1689 5.28386 8.3849
82 2 C 3.41956 10.7754 12.9706
83 2 C 2.48447 10.5005 14.21
84 4 O 1.43728 9.59816 13.8437
85 1 H 4.14782 9.95518 12.9156
86 1 H 2.86776 10.8835 12.028
87 1 H 4.07837 11.603 13.0942
88 1 H 1.99563 11.4351 14.5793
89 1 H 3.10081 10.0877 15.0267
90 1 H 1.13905 9.09096 14.6076
91 2 C 9.35006 3.14783 15.3554
92 2 C 10.6265 3.81358 14.8677
93 4 O 11.2242 3.26963 13.7932
94 1 H 9.19303 3.74513 16.2809
95 1 H 8.36858 3.25539 14.775
96 1 H 9.55963 2.07982 15.5843
97 1 H 11.4004 3.83425 15.756
98 1 H 10.6742 4.9043 14.7526
99 1 H 10.7872 3.61476 13.0542
100 2 C 6.87417 14.0578 10.0715
101 2 C 6.83815 14.249 11.5933
102 4 O 7.94822 13.6224 12.2785
103 1 H 6.76582 12.9777 9.84317
104 1 H 5.99927 14.4375 9.5127
105 1 H 7.80922 14.4017 9.63545
106 1 H 5.89496 13.9571 12.0314
107 1 H 6.91217 15.3302 11.8026
108 1 H 7.90285 12.6853 12.1199
109 2 C 4.66347 16.7347 7.63463
110 2 C 5.3348 15.9059 6.60019
111 4 O 4.99377 14.5296 6.63056
112 1 H 3.61056 16.4894 7.50504
113 1 H 5.02852 16.6181 8.65235
114 1 H 4.7173 17.7934 7.44245
115 1 H 6.38031 15.8697 6.73064
116 1 H 5.16495 16.3135 5.60667
117 1 H 4.3164 14.3529 5.9721
118 2 C 3.16861 7.05281 8.38547
119 2 C 2.16855 7.60814 9.37978
120 4 O 0.863921 7.5911 8.70328
121 1 H 2.92444 7.39175 7.39643
122 1 H 4.16017 7.4222 8.59594
123 1 H 3.28211 5.99455 8.34669
124 1 H 2.46429 8.654 9.63081
125 1 H 2.11593 7.05766 10.3622
126 1 H 0.378627 8.25893 9.21684
127 2 C 7.75603 -0.958322 16.4639
128 2 C 6.72048 -0.662536 15.3828
129 4 O 6.84558 17.2675 14.4709
130 1 H 7.7357 -0.269403 17.2621
131 1 H 7.61474 17.0152 16.8387
132 1 H 8.73398 -0.973221 15.9961
133 1 H 6.88522 0.29198 14.8978
134 1 H 5.68922 -0.716853 15.7875
135 1 H 7.17025 17.5154 13.6101
136 2 C 6.8223 10.7059 2.34873
137 2 C 7.96006 11.2835 3.25714
138 4 O 9.08801 11.5235 2.48085
139 1 H 7.1181 9.75916 1.95522
140 1 H 5.97018 10.4585 2.97721
141 1 H 6.50637 11.4585 1.60965
142 1 H 8.13023 10.549 4.06197
143 1 H 7.67936 12.1991 3.74147
144 1 H 9.01612 11.2922 1.5571
145 2 C 9.42641 0.0515522 2.53176
146 2 C 9.47446 -0.644309 3.9742
147 4 O 10.6796 -0.899218 4.59436
148 1 H 8.35089 0.24851 2.35087
149 1 H 10.0337 0.967543 2.51808
150 1 H 9.79169 -0.611226 1.77686
151 1 H 8.91586 17.4505 3.95517
152 1 H 9.09446 -0.0188508 4.74485
153 1 H 11.1119 17.2909 4.2962
154 2 C 0.303187 0.960262 15.4676
155 2 C 1.00928 2.27679 15.4877
156 4 O 0.673336 2.9556 14.2757
157 1 H 0.298671 0.563343 14.456
158 1 H 0.725042 0.226362 16.1558
159 1 H -0.733114 1.231 15.6545
160 1 H 2.08606 2.21592 15.4833
161 1 H 0.70356 2.91712 16.3171
162 1 H 1.21164 3.77689 14.3091
163 2 C 17.8089 10.3592 3.76011
164 2 C -0.843714 10.7663 5.18287
165 4 O 0.215348 9.92779 5.73224
166 1 H 17.2433 9.42561 3.72956
167 1 H 17.192 11.1272 3.25472
168 1 H -0.255291 10.1942 3.2696
169 1 H 17.3358 10.6867 5.87872
170 1 H -0.461909 11.8111 5.23421
171 1 H -0.164473 9.04733 5.73743
172 2 C 12.4715 8.47333 17.3668
173 2 C 11.1579 7.85857 16.9201
174 4 O 10.319 7.5563 -0.88977
175 1 H 12.5311 9.0778 -0.74869
176 1 H 13.1388 7.64783 17.6157
177 1 H 13.0333 9.08185 16.6322
178 1 H 11.276 6.907 16.3342
179 1 H 10.6161 8.54223 16.3051
180 1 H 9.4205 7.47233 17.8521
181 2 C 0.92284 0.228093 7.79849
182 2 C 1.38599 1.4397 6.94936
183 4 O 0.562836 2.54396 7.21315
184 1 H 0.190438 -0.371633 7.26932
185 1 H 1.75572 -0.438711 8.0222
186 1 H 0.610841 0.692159 8.75353
187 1 H 1.35808 1.11026 5.90139
188 1 H 2.41189 1.73653 7.19469
189 1 H -0.240059 2.77873 6.75623
190 2 C 7.86446 -0.565078 9.32991
191 2 C 7.18646 17.9449 10.5753
192 4 O 8.16526 17.6046 11.6104
193 1 H 7.10795 -0.36669 8.59555
194 1 H 8.27025 0.467268 9.48951
195 1 H 8.61351 17.7712 8.90651
196 1 H 6.6811 17.0084 10.3103
197 1 H 6.50344 -0.287523 10.9512
198 1 H 8.84979 -0.737271 11.6295
199 2 C 10.9484 15.9227 12.2222
200 2 C 11.6994 14.6669 11.9625
201 4 O 10.9395 13.7113 11.2017
202 1 H 11.4838 16.746 12.6891
203 1 H 10.6086 16.3056 11.208
204 1 H 10.0213 15.7946 12.7804
205 1 H 11.9506 14.167 12.9041
206 1 H 12.5993 14.855 11.4025
207 1 H 9.97186 13.8051 11.3686
208 2 C 3.44032 10.1169 1.78911
209 2 C 2.21181 10.2647 2.71169
210 4 O 2.58312 11.0407 3.8593
211 1 H 3.77336 11.1242 1.53644
212 1 H 4.28571 9.64825 2.28349
213 1 H 3.15812 9.59149 0.873069
214 1 H 1.87339 9.26936 3.05906
215 1 H 1.38771 10.6996 2.14868
216 1 H 1.89091 10.929 4.52934
217 2 C 15.9193 10.0958 13.551
218 2 C 16.795 8.79925 13.7873
219 4 O 16.5576 8.09315 14.9965
220 1 H 14.9456 9.84847 13.8427
221 1 H 16.3722 10.875 14.1598
222 1 H 15.907 10.3882 12.4846
223 1 H 17.8965 8.97007 13.8576
224 1 H 16.6419 8.08072 12.9351
225 1 H 15.6173 7.84333 15.0127
226 2 C 15.2183 2.52372 8.14994
227 2 C 16.3329 1.47259 8.22105
228 4 O 16.6089 1.1791 6.8718
229 1 H 14.4392 1.9368 7.62239
230 1 H 14.8945 2.7944 9.16013
231 1 H 15.5124 3.44775 7.63622
232 1 H 15.9418 0.573269 8.70096
233 1 H 17.2312 1.72413 8.71546
234 1 H 16.0145 0.503943 6.55967
235 2 C 14.9587 16.9452 17.9057
236 2 C 16.3654 16.868 17.3765
237 4 O 17.0027 15.6202 17.726
238 1 H 14.3589 16.1489 17.4932
239 1 H 14.9102 16.9451 -0.0260627
240 1 H 14.5146 -1.0253 17.6358
241 1 H 16.8892 17.6778 17.9006
242 1 H 16.3714 17.0449 16.3308
243 1 H 0.839903 3.83043 8.27291
244 2 C 11.7185 14.459 2.16421
245 2 C 12.346 14.8089 3.47459
246 4 O 11.5475 15.5008 4.31768
247 1 H 12.3857 13.9708 1.4195
248 1 H 10.7901 13.9001 2.35912
249 1 H 11.2607 15.2924 1.57478
250 1 H 13.3588 15.4197 3.18624
251 1 H 12.6913 13.9188 4.01935
252 1 H 11.6518 15.1683 5.25303
253 2 C 17.9086 6.91812 -0.597098
254 2 C 17.9629 5.86395 17.2219
255 4 O -0.746918 6.43888 15.9777
256 1 H 17.439 7.83452 18.0055
257 1 H 17.1728 6.54133 0.126805
258 1 H -0.0607783 7.06903 -0.257793
259 1 H 16.9986 5.33674 17.1053
260 1 H -0.258195 5.19004 17.5282
261 1 H 17.5959 7.04423 15.6086
262 2 C -0.691673 17.5306 3.3138
263 2 C 0.269006 16.4118 3.29461
264 4 O 1.21676 16.5104 4.36563
265 1 H 17.9935 17.8018 4.28634
266 1 H -0.367517 -0.55707 2.82163
267 1 H 17.5119 17.1675 2.65978
268 1 H 0.715793 16.3885 2.25121
269 1 H -0.259359 15.4686 3.36776
270 1 H 1.76599 15.7676 4.46316
271 2 C 11.635 17.9997 15.6863
272 2 C 12.5853 0.0683209 15.1468
273 4 O 13.6971 0.439378 15.9666
274 1 H 10.9771 -0.683163 16.4759
275 1 H 11.0295 17.6868 14.8665
276 1 H 12.1937 17.138 16.0645
277 1 H 11.9334 0.903149 14.9149
278 1 H 13.0182 -0.198424 14.1767
279 1 H 13.5452 1.40278 16.3278
280 2 C 8.44192 2.57204 6.32825
281 2 C 8.99372 2.93609 7.72744
282 4 O 8.31742 3.94439 8.50725
283 1 H 8.62417 3.25431 5.5185
284 1 H 8.92669 1.62269 6.07617
285 1 H 7.38248 2.3355 6.36405
286 1 H 9.99855 3.28026 7.59462
287 1 H 9.01741 2.02829 8.31397
288 1 H 8.92911 4.15001 9.2441
289 2 C 7.1654 6.33044 11.935
290 2 C 8.33904 5.23946 11.8463
291 4 O 9.39177 5.26652 10.9341
292 1 H 6.61113 6.35347 10.9943
293 1 H 6.55859 5.97425 12.7682
294 1 H 7.54834 7.30268 12.197
295 1 H 7.87465 4.27121 11.7184
296 1 H 8.74045 5.23124 12.8291
297 1 H 9.81097 6.12139 10.9774
298 2 C 13.1693 10.8544 4.86741
299 2 C 12.2333 11.6883 5.66165
300 4 O 11.3957 10.8871 6.50491
301 1 H 13.931 11.5415 4.50438
302 1 H 13.7124 10.1839 5.54791
303 1 H 12.8106 10.2687 4.01671
304 1 H 11.5812 12.2947 5.01304
305 1 H 12.7988 12.2667 6.38529
306 1 H 10.7039 10.4748 5.98846
307 2 C 13.4021 7.57049 12.1472
308 2 C 12.9767 7.98777 13.5878
309 4 O 13.5775 7.2351 14.659
310 1 H 13.4922 6.48492 12.1713
311 1 H 12.7158 7.94462 11.4183
312 1 H 14.3848 7.97502 11.961
313 1 H 11.9165 7.94685 13.7217
314 1 H 13.2672 9.00439 13.8709
315 1 H 13.5041 6.27709 14.5455
316 2 C 4.40992 11.8094 8.76431
317 2 C 5.70368 11.189 8.24764
318 4 O 6.33046 11.691 7.07894
319 1 H 3.73408 11.0214 9.09836
320 1 H 4.61104 12.5251 9.55769
321 1 H 3.91933 12.3859 7.95996
322 1 H 5.55584 10.1517 7.99351
323 1 H 6.43413 11.1855 9.07615
324 1 H 6.25942 12.6548 7.09413
325 2 C 17.7413 -0.785508 10.8414
326 2 C -0.808482 -0.0942516 12.0725
327 4 O -0.809655 1.30975 11.8
328 1 H -0.664515 -0.687225 9.92495
329 1 H 17.5003 17.1862 10.9777
330 1 H 16.7665 -0.32382 10.6082
331 1 H 0.18626 -0.464522 12.4451
332 1 H 17.4422 -0.340035 12.8033
333 1 H -0.515225 1.84289 12.5562
334 2 C 3.39261 6.5992 13.7854
335 2 C 2.91774 6.01052 15.1428
336 4 O 1.65102 5.32247 15.0498
337 1 H 4.42638 6.95368 13.8753
338 1 H 3.43532 5.85648 13.026
339 1 H 2.77631 7.42812 13.4273
340 1 H 2.83929 6.84142 15.9208
341 1 H 3.64962 5.29405 15.4762
342 1 H 0.931038 5.99295 15.1258
343 2 C 5.73395 13.1316 15.8393
344 2 C 5.13111 14.4831 15.5782
345 4 O 4.52415 14.3923 14.253
346 1 H 6.48777 13.1988 16.6758
347 1 H 5.06829 12.3883 16.0547
348 1 H 6.32265 12.8068 14.942
349 1 H 5.94992 15.1571 15.4281
350 1 H 4.4384 14.8571 16.3032
351 1 H 4.78373 15.2285 13.8783
352 2 C 5.65092 2.37337 12.9615
353 2 C 5.13827 3.0558 14.2103
354 4 O 6.09073 4.04709 14.6766
355 1 H 6.64438 1.9489 13.0855
356 1 H 4.97103 1.53283 12.792
357 1 H 5.556 3.0662 12.1225
358 1 H 5.15535 2.3767 15.0507
359 1 H 4.1642 3.47848 13.9603
360 1 H 6.01123 4.83724 14.1131
361 2 C 13.6315 16.8508 8.58561
362 2 C 13.0937 15.5493 7.95618
363 4 O 13.5666 14.4176 8.67212
364 1 H 14.6745 17.0624 8.34576
365 1 H 13.0739 17.7024 8.15615
366 1 H 13.5471 16.8791 9.65296
367 1 H 13.3904 15.5023 6.91761
368 1 H 11.9996 15.5079 7.87059
369 1 H 12.7482 13.9882 8.9312
370 2 C 12.4251 6.53807 7.7369
371 2 C 12.5933 8.04502 7.6449
372 4 O 11.9972 8.80227 8.71003
373 1 H 11.3843 6.19506 7.79211
374 1 H 12.9823 5.97898 6.98333
375 1 H 12.7917 6.15851 8.74577
376 1 H 12.1622 8.45334 6.72465
377 1 H 13.68 8.26943 7.69412
378 1 H 11.7118 9.62965 8.33605
379 2 C 0.577387 5.3861 5.37456
380 2 C 0.858326 6.30827 4.21203
381 4 O -0.160238 7.27305 4.01211
382 1 H -0.488242 5.13959 5.40664
383 1 H 1.07051 4.41018 5.28331
384 1 H 0.787613 5.91694 6.29994
385 1 H 1.12139 5.70983 3.29114
386 1 H 1.7415 6.90717 4.40443
387 1 H -0.830223 6.82729 3.48687
388 2 C 16.3648 13.7918 12.9952
389 2 C 15.682 14.3764 11.8056
390 4 O 14.9729 13.3311 11.0818
391 1 H 17.033 12.9645 12.7432
392 1 H 17.044 14.529 13.4497
393 1 H 15.6045 13.4404 13.7031
394 1 H 16.3865 14.8903 11.1509
395 1 H 14.965 15.1667 12.14
396 1 H 14.5037 13.7646 10.3238
397 2 C 0.241253 11.4272 10.0242
398 2 C -0.578267 10.5621 11.0214
399 4 O 0.119513 9.288 11.1283
400 1 H 0.618446 10.7859 9.19822
401 1 H -0.483519 12.0614 9.50393
402 1 H 0.997977 12.0211 10.5004
403 1 H 17.4223 10.4216 10.631
404 1 H -0.576171 11.0745 11.9684
405 1 H 0.377986 9.3091 12.0349
406 2 C 0.513495 11.1897 17.7873
407 2 C 0.943251 9.75969 17.6137
408 4 O 0.546743 9.04328 16.4029
409 1 H 0.660462 11.8342 16.924
410 1 H -0.589235 11.2599 17.9788
411 1 H 1.03203 11.5767 -0.300015
412 1 H 0.526264 9.22072 -0.587258
413 1 H 2.01549 9.86944 17.6739
414 1 H -0.088101 8.31874 16.5676
415 2 C 9.6819 6.62709 5.79334
416 2 C 9.21396 7.9077 6.47624
417 4 O 9.10283 9.0339 5.61733
418 1 H 10.5957 6.84325 5.24894
419 1 H 9.76001 5.77025 6.45403
420 1 H 8.90284 6.41318 5.06015
421 1 H 9.87145 8.17745 7.29115
422 1 H 8.2436 7.77935 6.97044
423 1 H 9.60711 8.85153 4.80741
424 2 C 4.69151 13.8692 2.87611
425 2 C 3.30376 14.4541 2.90438
426 4 O 2.77231 14.3747 4.26146
427 1 H 4.81727 13.1561 3.67637
428 1 H 4.98239 13.3806 1.91369
429 1 H 5.492 14.6126 3.16028
430 1 H 2.54829 13.8948 2.28527
431 1 H 3.20944 15.5262 2.65267
432 1 H 2.60635 13.4551 4.49314
433 2 C -0.480627 5.07747 10.936
434 2 C -0.465191 4.25059 9.70983
435 4 O 0.700157 4.55439 8.91857
436 1 H -0.132796 6.07213 10.5888
437 1 H 17.5943 5.09075 11.357
438 1 H 0.236396 4.59409 11.6306
439 1 H 17.6722 4.41064 9.00027
440 1 H -0.538418 3.17161 9.79071
441 1 H 0.601361 5.40103 8.34203
442 2 C 14.2102 2.51014 0.0804853
443 2 C 14.5501 3.5234 18.0697
444 4 O 13.9848 2.97344 16.8497
445 1 H 14.789 1.59587 -0.0794442
446 1 H 14.3169 2.90055 1.109
447 1 H 13.1725 2.2702 -0.106762
448 1 H 15.5937 3.75787 17.9037
449 1 H 14.0297 4.44543 -0.751885
450 1 H 13.9876 3.57847 16.0775
ITEM: TIMESTEP
6600
ITEM: NUMBER OF ATOMS
450
ITEM: BOX BOUNDS pp pp pp
-1.0389354069749519e+00 1.7963935406974947e+01
-1.0389354069749519e+00 1.7963935406974947e+01
-1.0389354069749519e+00 1.7963935406974947e+01
ITEM: ATOMS id type element x y z
1 2 C 12.7447 6.70625 3.368
2 2 C 11.7312 7.41064 2.45862
3 4 O 11.0793 8.41543 3.27162
4 1 H 12.763 5.64378 3.08848
5 1 H 13.7632 7.10338 3.21301
6 1 H 12.4517 6.82756 4.43012
7 1 H 11.0053 6.68547 2.0421
8 1 H 12.2544 7.84578 1.61659
9 1 H 10.601 9.04346 2.7451
10 2 C 13.0233 13.5098 16.7206
11 2 C 14.3877 13.0033 17.2101
12 4 O 15.0111 13.6998 -0.707606
13 1 H 13.0848 14.353 16.03
14 1 H 12.5091 12.6862 16.2238
15 1 H 12.4706 13.7453 17.6507
16 1 H 15.1301 13.0777 16.4678
17 1 H 14.2946 11.9409 17.5115
18 1 H 14.3128 13.8984 -0.0718045
19 2 C 13.9247 -0.198731 3.12404
20 2 C 13.8024 1.01646 3.95144
21 4 O 12.5862 1.0283 4.70831
22 1 H 13.402 -0.331273 2.16646
23 1 H 14.9979 -0.307602 2.85671
24 1 H 13.6913 17.9017 3.69679
25 1 H 13.8958 1.91255 3.29753
26 1 H 14.6063 1.07636 4.65271
27 1 H 12.1712 0.172274 4.61038
28 2 C 15.7067 7.09116 9.65755
29 2 C 16.0732 8.13009 8.61285
30 4 O 16.0721 7.7197 7.2103
31 1 H 16.0867 6.09098 9.39423
32 1 H 16.1145 7.39505 10.6223
33 1 H 14.6133 6.92652 9.77921
34 1 H 17.063 8.53546 8.75405
35 1 H 15.3422 8.96124 8.7508
36 1 H 15.2841 7.18406 7.06488
37 2 C 2.83626 1.06646 11.0042
38 2 C 2.26978 2.40053 11.3361
39 4 O 3.02575 3.3447 11.3051
40 1 H 2.22094 0.466319 10.3816
41 1 H 3.82679 1.25789 10.6014
42 1 H 2.95054 0.41738 11.9111
43 1 H 1.19563 2.34003 11.7596
44 1 H 16.5506 15.2761 -0.43397
45 1 H 8.94554 6.60406 8.36747
46 2 C 9.01247 14.0102 5.56031
47 2 C 9.26619 14.7647 6.90305
48 4 O 10.4363 14.3295 7.61636
49 1 H 8.03098 14.2143 5.1478
50 1 H 9.80519 14.1365 4.8238
51 1 H 8.90261 12.9556 5.83373
52 1 H 8.40105 14.6175 7.56213
53 1 H 9.44255 15.8224 6.71492
54 1 H 10.2853 13.4526 7.96967
55 2 C 16.338 3.66601 14.1588
56 2 C 15.5886 4.93511 14.1743
57 4 O 14.2088 4.74529 14.5485
58 1 H 16.2519 2.98168 13.3041
59 1 H 17.4285 4.01311 14.2605
60 1 H 16.0485 3.28934 15.1001
61 1 H 15.6128 5.56539 13.2566
62 1 H 16.1125 5.43388 15.0251
63 1 H 13.7545 3.99885 14.1697
64 2 C 10.3942 10.0233 11.4884
65 2 C 9.58148 9.20397 10.4416
66 4 O 10.0835 7.86074 10.4406
67 1 H 11.4067 9.70563 11.2681
68 1 H 10.3623 11.0811 11.3064
69 1 H 10.1301 9.79984 12.5235
70 1 H 9.70345 9.63455 9.42227
71 1 H 8.53579 9.13478 10.6661
72 1 H 10.7944 7.90579 9.74133
73 2 C 4.67445 4.13992 7.38264
74 2 C 5.66812 5.17526 6.96761
75 4 O 6.48189 5.70761 7.97521
76 1 H 4.2961 4.39327 8.39471
77 1 H 3.89175 3.94397 6.65325
78 1 H 5.08823 3.15909 7.52054
79 1 H 5.14821 6.07904 6.62278
80 1 H 6.24558 4.8292 6.10916
81 1 H 7.15325 5.08473 8.28362
82 2 C 3.23579 10.6682 13.0356
83 2 C 2.27414 10.5223 14.1096
84 4 O 1.38121 9.41306 13.8183
85 1 H 3.88168 9.77715 12.9329
86 1 H 2.69144 10.8336 12.065
87 1 H 3.90383 11.4842 13.1387
88 1 H 1.70595 11.4111 14.4251
89 1 H 2.77305 10.2416 15.0316
90 1 H 0.890396 9.20785 14.6401
91 2 C 9.11033 3.32202 15.3654
92 2 C 10.5821 3.76185 15.0665
93 4 O 10.8712 3.53885 13.56
94 1 H 8.83629 3.443 16.3548
95 1 H 8.46148 3.99278 14.8646
96 1 H 8.90481 2.33759 14.9151
97 1 H 11.2179 3.1051 15.5137
98 1 H 10.9242 4.76364 15.3946
99 1 H 10.1655 3.80802 12.9578
100 2 C 7.15907 14.0531 10.1323
101 2 C 6.89474 14.078 11.612
102 4 O 7.91134 13.4122 12.3544
103 1 H 7.41325 13.0823 9.66598
104 1 H 6.30828 14.3803 9.54113
105 1 H 7.96098 14.7455 9.85448
106 1 H 5.92695 13.7047 11.9242
107 1 H 6.91746 15.1698 11.8316
108 1 H 7.54709 12.5547 12.5332
109 2 C 4.55452 16.536 7.7043
110 2 C 5.36318 15.6686 6.7323
111 4 O 5.05764 14.2727 6.73773
112 1 H 3.55727 16.7586 7.33089
113 1 H 4.45494 15.9765 8.63987
114 1 H 5.15119 17.4056 8.01431
115 1 H 6.47468 15.661 6.95171
116 1 H 5.29505 15.9919 5.68483
117 1 H 4.34138 14.1327 6.12016
118 2 C 3.25358 6.95427 8.46931
119 2 C 2.15726 7.6858 9.20707
120 4 O 0.913488 7.44358 8.5392
121 1 H 3.68247 7.50848 7.63713
122 1 H 4.09228 6.70177 9.15261
123 1 H 2.93409 5.96395 8.17494
124 1 H 2.38023 8.73145 9.1554
125 1 H 2.09547 7.33722 10.2191
126 1 H 0.33625 8.0241 9.05437
127 2 C 7.93554 -0.915723 16.7316
128 2 C 6.84305 -0.720671 15.6954
129 4 O 6.50761 17.3211 14.6866
130 1 H 7.96366 0.000262383 17.3794
131 1 H 7.80353 17.2195 17.3198
132 1 H 8.94731 -0.925884 16.3075
133 1 H 7.08854 0.217055 15.1625
134 1 H 5.90781 -0.542686 16.2115
135 1 H 7.28287 17.1097 14.1523
136 2 C 6.7111 10.6227 2.53851
137 2 C 7.81006 11.3059 3.40272
138 4 O 9.12325 11.4173 2.69458
139 1 H 6.98217 9.55411 2.3742
140 1 H 5.81856 10.6098 3.1401
141 1 H 6.49395 11.1209 1.57877
142 1 H 7.97708 10.6545 4.3069
143 1 H 7.50394 12.3019 3.7636
144 1 H 9.05649 11.5878 1.75273
145 2 C 9.65006 -0.626181 2.63013
146 2 C 9.27376 -0.503653 4.02834
147 4 O 10.4284 -0.837228 4.89424
148 1 H 8.72627 -0.615308 2.06605
149 1 H 10.2627 0.202971 2.25926
150 1 H 10.0414 17.3428 2.37773
151 1 H 8.43336 17.8186 4.32089
152 1 H 8.93917 0.450113 4.39367
153 1 H 10.7695 17.3266 4.54916
154 2 C 0.231646 0.912846 15.5189
155 2 C 1.07107 2.19531 15.4551
156 4 O 0.59375 2.99107 14.3689
157 1 H 0.453744 0.115876 14.8112
158 1 H 0.47419 0.469671 16.4927
159 1 H -0.804206 1.20874 15.4477
160 1 H 2.14564 2.04108 15.3113
161 1 H 0.956376 2.78523 16.3715
162 1 H 0.997649 3.8663 14.4421
163 2 C 17.6295 10.5956 3.80047
164 2 C -0.935269 10.5201 5.2748
165 4 O 0.144905 9.6652 5.4723
166 1 H 17.4772 9.55197 3.49808
167 1 H 16.679 11.0969 3.68948
168 1 H -0.557954 11.01 3.18636
169 1 H 17.2185 10.2302 5.92175
170 1 H -0.677556 11.4722 5.69393
171 1 H 0.098899 8.98906 4.78206
172 2 C 12.4112 8.48843 17.583
173 2 C 11.0689 7.96725 17.1701
174 4 O 10.4828 7.35493 -0.707892
175 1 H 12.4248 9.48608 -0.939581
176 1 H 12.9388 7.80566 -0.747231
177 1 H 13.1347 8.45868 16.796
178 1 H 11.1913 7.2145 16.4296
179 1 H 10.4334 8.79774 16.7218
180 1 H 9.57334 7.17373 -0.90792
181 2 C 0.82795 0.121287 7.51499
182 2 C 1.42302 1.39398 6.95786
183 4 O 0.537931 2.45435 7.18155
184 1 H -0.0477776 -0.33838 7.06462
185 1 H 1.64246 -0.581254 7.53294
186 1 H 0.621016 0.512425 8.50169
187 1 H 1.52862 1.26444 5.88833
188 1 H 2.42363 1.44926 7.37046
189 1 H -0.29881 2.13037 7.55086
190 2 C 7.64552 -0.433928 9.29021
191 2 C 7.24592 17.9365 10.6192
192 4 O 8.2929 17.5171 11.4472
193 1 H 6.76151 -0.233094 8.66925
194 1 H 8.07665 0.572268 9.41554
195 1 H 8.31793 17.9239 8.74485
196 1 H 6.67929 17.0482 10.4118
197 1 H 6.56904 -0.434878 11.2014
198 1 H 8.94548 -0.788992 11.5688
199 2 C 10.8106 15.645 12.1091
200 2 C 11.7847 14.4903 11.983
201 4 O 11.1238 13.366 11.4329
202 1 H 11.1954 16.5376 12.6177
203 1 H 10.4002 15.9762 11.1941
204 1 H 9.92072 15.3598 12.6719
205 1 H 12.2371 14.2339 12.9457
206 1 H 12.7008 14.711 11.3655
207 1 H 10.2377 13.2545 11.7387
208 2 C 3.45573 10.0528 1.51759
209 2 C 2.37514 10.3868 2.50403
210 4 O 2.84107 10.9786 3.68844
211 1 H 4.0361 10.9579 1.3145
212 1 H 4.07222 9.23125 1.92623
213 1 H 2.94193 9.77746 0.593868
214 1 H 1.7205 9.52799 2.66619
215 1 H 1.77247 11.0991 1.93247
216 1 H 2.57579 10.3909 4.40055
217 2 C 16.5363 10.2635 13.486
218 2 C 16.8729 8.82296 13.5827
219 4 O 16.4102 8.25651 14.8261
220 1 H 15.715 10.554 14.1376
221 1 H 17.4806 10.7515 13.8517
222 1 H 16.3866 10.4751 12.45
223 1 H -1.03731 8.62457 13.5893
224 1 H 16.4924 8.28098 12.7713
225 1 H 15.4673 8.03053 14.7745
226 2 C 15.3081 2.49821 8.31599
227 2 C 16.4482 1.45809 8.35734
228 4 O 17.0305 1.13191 7.04541
229 1 H 14.4334 2.07507 7.86281
230 1 H 15.15 2.84642 9.31841
231 1 H 15.7262 3.33802 7.74293
232 1 H 16.0941 0.508702 8.73361
233 1 H 17.1787 1.78985 9.13233
234 1 H 17.2213 1.97426 6.60701
235 2 C 14.8754 17.1529 17.8676
236 2 C 16.3063 16.8456 17.2553
237 4 O 17.0109 15.8373 17.913
238 1 H 14.2866 16.2863 17.7132
239 1 H 14.8287 17.2694 -0.0566054
240 1 H 14.4232 18.0864 17.4566
241 1 H 16.8958 17.7979 17.3154
242 1 H 16.1653 16.7737 16.1299
243 1 H 1.08021 4.28929 8.2248
244 2 C 11.665 14.4261 2.12513
245 2 C 12.2619 14.6626 3.52282
246 4 O 11.3747 15.6314 4.31535
247 1 H 12.3847 14.1142 1.39258
248 1 H 10.8412 13.6653 1.96803
249 1 H 11.3187 15.3972 1.80499
250 1 H 13.0503 15.223 3.25936
251 1 H 12.4615 13.7635 4.24549
252 1 H 11.5529 15.4076 5.23775
253 2 C -0.915674 6.8234 -0.843206
254 2 C 17.7667 5.86586 17.0851
255 4 O -0.811986 6.44183 15.8644
256 1 H 17.2383 7.4724 -0.878571
257 1 H -0.751371 6.30668 0.0940991
258 1 H -0.0303516 7.34182 -1.18431
259 1 H 16.7458 5.4985 17.0813
260 1 H -0.597513 4.99332 17.2827
261 1 H 17.4869 7.06539 15.5362
262 2 C -0.348275 17.6188 3.08782
263 2 C 0.648007 16.4307 3.31782
264 4 O 1.07143 16.3921 4.63199
265 1 H 17.8257 17.4763 3.81748
266 1 H 0.205432 -0.530804 3.48044
267 1 H -0.622612 17.8474 2.04807
268 1 H 1.46984 16.6343 2.67318
269 1 H 0.204785 15.4388 3.07048
270 1 H 1.85565 15.802 4.7088
271 2 C 11.4951 -0.596408 15.7527
272 2 C 12.6847 -0.0207044 15.019
273 4 O 13.7716 0.178417 15.9075
274 1 H 11.4016 -0.0881824 16.741
275 1 H 10.5581 -0.448406 15.1836
276 1 H 11.5716 17.3471 16.0744
277 1 H 12.2951 0.910843 14.5893
278 1 H 13.0977 -0.631595 14.2088
279 1 H 13.8097 1.05468 16.1306
280 2 C 8.25138 2.57611 6.62355
281 2 C 9.19556 2.86642 7.73844
282 4 O 8.57594 3.89265 8.48846
283 1 H 8.05354 3.48803 6.02924
284 1 H 8.63605 1.8513 5.89834
285 1 H 7.29455 2.22251 7.00683
286 1 H 10.1952 3.19484 7.3239
287 1 H 9.39111 2.04594 8.4347
288 1 H 9.14555 4.21204 9.19765
289 2 C 7.33426 6.32002 11.5579
290 2 C 8.15314 5.05973 11.7869
291 4 O 9.26663 5.10571 10.8736
292 1 H 7.07813 6.42716 10.5202
293 1 H 6.45171 6.28968 12.2031
294 1 H 7.96573 7.14815 11.9048
295 1 H 7.55263 4.19513 11.5757
296 1 H 8.42181 5.04342 12.8856
297 1 H 9.6911 5.99068 10.9924
298 2 C 13.0344 11.1457 4.61137
299 2 C 11.9063 11.5469 5.56351
300 4 O 11.542 10.4495 6.39022
301 1 H 13.6267 11.9291 4.17359
302 1 H 13.6649 10.4695 5.15911
303 1 H 12.646 10.6046 3.7403
304 1 H 11.0315 11.9168 5.00351
305 1 H 12.1884 12.3661 6.20691
306 1 H 10.652 10.122 6.16291
307 2 C 13.4386 7.69611 12.2974
308 2 C 12.855 8.20947 13.5993
309 4 O 13.7549 7.70312 14.6311
310 1 H 13.3127 6.63281 12.1923
311 1 H 12.8862 8.26433 11.5228
312 1 H 14.4623 8.00477 12.2397
313 1 H 11.8033 7.85568 13.7557
314 1 H 12.8218 9.29626 13.726
315 1 H 13.4973 6.78911 14.8413
316 2 C 4.29834 11.8091 8.76065
317 2 C 5.50527 11.0063 8.35165
318 4 O 6.04383 11.7088 7.1944
319 1 H 3.85404 11.4762 9.70122
320 1 H 4.57066 12.8569 8.92343
321 1 H 3.59101 11.791 7.95672
322 1 H 5.37804 9.98604 8.05006
323 1 H 6.24798 10.9541 9.16033
324 1 H 5.74722 12.6235 7.30992
325 2 C 17.6577 -0.801856 11.0263
326 2 C -0.83635 0.0795338 12.1448
327 4 O -1.11426 1.41414 11.9224
328 1 H -0.998778 -0.377365 10.0829
329 1 H -0.941067 17.1801 11.0889
330 1 H 16.6235 -0.907231 10.8854
331 1 H 0.188318 -0.178405 12.3169
332 1 H 17.5589 -0.260046 13.0073
333 1 H -0.680854 1.93638 12.6292
334 2 C 3.28212 6.54571 13.8976
335 2 C 2.74054 6.17407 15.217
336 4 O 1.54036 5.49013 15.1341
337 1 H 4.29994 6.98043 14.0117
338 1 H 3.33753 5.66375 13.2632
339 1 H 2.7182 7.27574 13.324
340 1 H 2.66529 6.96776 15.906
341 1 H 3.45148 5.43774 15.6049
342 1 H 0.797341 6.0766 15.1823
343 2 C 5.54067 13.0302 15.5169
344 2 C 5.21163 14.5076 15.3673
345 4 O 4.72946 14.7787 14.0411
346 1 H 5.66068 12.8237 16.5397
347 1 H 4.77431 12.2734 15.0527
348 1 H 6.51025 12.786 15.1348
349 1 H 6.06723 15.1734 15.6047
350 1 H 4.44273 14.7894 16.1344
351 1 H 4.59372 15.7285 13.9964
352 2 C 5.29166 2.48452 12.8317
353 2 C 5.10667 3.07073 14.227
354 4 O 5.85913 4.24605 14.482
355 1 H 6.32856 2.18046 12.6364
356 1 H 4.62818 1.61409 12.7762
357 1 H 5.06078 3.19173 12.0519
358 1 H 5.40752 2.38254 15.0291
359 1 H 4.02455 3.24654 14.379
360 1 H 5.73816 4.79412 13.6985
361 2 C 14.0828 16.9335 8.46497
362 2 C 12.9206 15.9522 8.40293
363 4 O 13.476 14.6813 8.80215
364 1 H 14.9837 16.5097 8.0281
365 1 H 13.9216 17.8447 7.87634
366 1 H 14.2556 17.1918 9.52119
367 1 H 12.5166 15.874 7.37636
368 1 H 12.0716 16.2141 9.06715
369 1 H 12.6736 14.1302 8.71387
370 2 C 12.5742 6.48214 8.00007
371 2 C 12.5012 7.88316 7.48464
372 4 O 12.0218 8.70972 8.49398
373 1 H 11.9207 6.36154 8.85333
374 1 H 12.2951 5.7314 7.26331
375 1 H 13.4909 6.1066 8.3759
376 1 H 11.8801 7.95505 6.60425
377 1 H 13.4571 8.25187 7.13953
378 1 H 11.7899 9.57392 8.11484
379 2 C 0.388035 5.63562 5.51744
380 2 C 0.550066 6.26978 4.17281
381 4 O -0.514583 7.20417 3.86122
382 1 H -0.364927 4.86529 5.6111
383 1 H 1.36672 5.21572 5.83737
384 1 H 0.203287 6.38864 6.27888
385 1 H 0.637572 5.55559 3.4029
386 1 H 1.47254 6.88139 4.23364
387 1 H 17.9482 7.12915 4.64373
388 2 C 16.5406 14.1466 13.0092
389 2 C 15.9145 14.3475 11.6262
390 4 O 15.398 13.1162 11.106
391 1 H 17.5106 13.6612 13.0012
392 1 H 16.6549 15.1535 13.4468
393 1 H 15.9128 13.6083 13.7089
394 1 H 16.7442 14.639 10.9677
395 1 H 15.2108 15.1491 11.5602
396 1 H 14.7734 13.3083 10.3843
397 2 C 0.137131 11.3729 10.1208
398 2 C -0.560035 10.4086 11.0652
399 4 O -0.0657618 9.07846 11.1599
400 1 H 0.852389 10.8448 9.53108
401 1 H -0.569939 11.8557 9.42979
402 1 H 0.647043 12.161 10.7065
403 1 H 17.4627 10.2833 10.6892
404 1 H -0.57765 10.9419 12.0444
405 1 H 0.470234 9.092 11.983
406 2 C 0.407735 11.4489 17.4572
407 2 C 0.96891 9.96878 17.5202
408 4 O 0.503892 9.20191 16.4457
409 1 H 0.523502 11.9524 16.4708
410 1 H -0.638587 11.3065 17.6688
411 1 H 0.798757 12.1339 -0.860874
412 1 H 0.573368 9.47054 -0.602159
413 1 H 2.08834 10.0497 17.5393
414 1 H -0.325701 8.78198 16.7059
415 2 C 9.67718 6.66548 6.06682
416 2 C 9.27888 8.07039 6.47134
417 4 O 9.30897 9.03026 5.39845
418 1 H 10.5166 6.55258 5.35794
419 1 H 9.97589 6.14298 6.95218
420 1 H 8.78875 6.16917 5.6123
421 1 H 9.98822 8.46449 7.2
422 1 H 8.28524 8.06308 6.90548
423 1 H 9.95158 8.69343 4.76152
424 2 C 4.92285 13.9012 2.73378
425 2 C 3.56277 14.4539 2.95977
426 4 O 3.21041 14.3152 4.34456
427 1 H 4.91565 12.7904 2.85472
428 1 H 5.20031 14.2143 1.75967
429 1 H 5.58136 14.2774 3.46562
430 1 H 2.817 14.0047 2.34384
431 1 H 3.58614 15.5309 2.74277
432 1 H 2.75304 13.4805 4.49131
433 2 C -0.452576 5.19683 11.0647
434 2 C -0.190115 4.32722 9.77584
435 4 O 0.912632 4.92534 8.97091
436 1 H -0.956907 6.08623 10.7014
437 1 H 17.8289 4.57217 11.7148
438 1 H 0.512723 5.4222 11.5027
439 1 H 17.9534 4.36786 9.13179
440 1 H 0.0921761 3.31526 9.96051
441 1 H 0.609225 5.88233 8.75003
442 2 C 14.1458 2.5122 0.352518
443 2 C 14.3059 3.63026 -0.711437
444 4 O 13.7469 3.2855 17.0212
445 1 H 14.5794 1.59475 0.0139641
446 1 H 14.6393 2.88049 1.24314
447 1 H 13.1038 2.36322 0.5741
448 1 H 15.3927 3.83983 -0.853999
449 1 H 13.8802 4.57627 -0.308434
450 1 H 13.847 3.97876 16.3901
ITEM: TIMESTEP
6700
ITEM: NUMBER OF ATOMS
450
ITEM: BOX BOUNDS pp pp pp
-1.0313947710726534e+00 1.7956394771072677e+01
-1.0313947710726534e+00 1.7956394771072677e+01
-1.0313947710726534e+00 1.7956394771072677e+01
ITEM: ATOMS id type element x y z
1 2 C 12.65 7.07643 3.2788
2 2 C 11.5812 7.66148 2.4433
3 4 O 10.8929 8.62972 3.29305
4 1 H 13.4804 6.6771 2.73519
5 1 H 12.9817 7.79396 4.01633
6 1 H 12.2163 6.22297 3.83427
7 1 H 10.8687 6.94003 2.02353
8 1 H 11.9451 8.20416 1.59647
9 1 H 10.3775 9.26344 2.77548
10 2 C 13.3129 13.7572 16.7716
11 2 C 14.4144 12.8284 17.287
12 4 O 15.0942 13.547 -0.694238
13 1 H 13.7765 14.6903 16.4255
14 1 H 12.7424 13.2819 15.9905
15 1 H 12.6292 13.9084 17.5975
16 1 H 15.1601 12.4961 16.4776
17 1 H 13.9442 11.9584 17.7334
18 1 H 15.2121 12.9084 0.00781917
19 2 C 13.9644 -0.159047 3.21356
20 2 C 13.6924 1.08122 3.99792
21 4 O 12.7284 0.884492 4.9705
22 1 H 13.0787 -0.529711 2.64882
23 1 H 14.7662 -0.117585 2.48443
24 1 H 14.2682 -0.937506 3.88202
25 1 H 13.4481 1.87035 3.29652
26 1 H 14.5648 1.3868 4.61416
27 1 H 12.0153 0.311429 4.73488
28 2 C 15.9424 7.05751 9.61571
29 2 C 16.2419 7.86728 8.34727
30 4 O 16.012 7.13645 7.16433
31 1 H 16.2823 6.0339 9.57202
32 1 H 16.3995 7.59445 10.4422
33 1 H 14.8893 6.92745 9.72302
34 1 H 17.2957 8.24879 8.35771
35 1 H 15.6554 8.76072 8.40431
36 1 H 15.0974 7.25665 6.89585
37 2 C 2.85693 1.1703 10.964
38 2 C 2.41633 2.54623 11.4014
39 4 O 2.94456 3.58868 11.0657
40 1 H 1.99631 0.536052 10.6975
41 1 H 3.60334 1.17417 10.1875
42 1 H 3.18534 0.584425 11.8157
43 1 H 1.59211 2.48755 12.1098
44 1 H 17.1345 15.2046 17.6922
45 1 H 8.61938 6.92943 8.93382
46 2 C 8.97647 13.6969 5.57054
47 2 C 9.38543 14.7465 6.59418
48 4 O 10.6634 14.4735 7.22137
49 1 H 7.9786 13.9984 5.21753
50 1 H 9.59702 13.5803 4.68814
51 1 H 8.75976 12.7559 6.0682
52 1 H 8.5819 14.8762 7.34746
53 1 H 9.55167 15.676 6.07834
54 1 H 10.7014 13.5468 7.44304
55 2 C 16.033 3.47946 14.0033
56 2 C 15.241 4.83902 14.1445
57 4 O 13.9165 4.73977 14.7022
58 1 H 15.8996 2.82381 13.1501
59 1 H 17.0508 3.7843 14.0256
60 1 H 15.7305 3.01181 14.9328
61 1 H 15.1345 5.33856 13.2053
62 1 H 15.8895 5.4756 14.6952
63 1 H 13.2044 4.39372 14.1099
64 2 C 10.0966 9.89575 11.4329
65 2 C 9.61027 8.96411 10.3346
66 4 O 10.1945 7.65803 10.3268
67 1 H 11.1148 10.1905 11.1683
68 1 H 9.49741 10.7797 11.4368
69 1 H 10.0731 9.40781 12.436
70 1 H 9.7858 9.44038 9.38436
71 1 H 8.5285 8.79736 10.4495
72 1 H 10.8383 7.75084 9.63472
73 2 C 4.80348 4.02009 7.12425
74 2 C 5.59473 5.27311 6.73027
75 4 O 6.56083 5.65153 7.6713
76 1 H 4.1443 4.19435 7.98029
77 1 H 4.09837 3.73783 6.33658
78 1 H 5.40898 3.11501 7.34772
79 1 H 4.93068 6.12909 6.66165
80 1 H 6.10317 5.08646 5.77393
81 1 H 7.01224 4.86209 7.99686
82 2 C 3.09482 10.5518 12.822
83 2 C 2.0275 10.4881 13.9076
84 4 O 1.28502 9.31737 13.6764
85 1 H 3.58626 9.63583 12.5766
86 1 H 2.71125 10.898 11.8929
87 1 H 3.83758 11.3775 13.1441
88 1 H 1.39533 11.3759 13.9105
89 1 H 2.48046 10.4113 14.9098
90 1 H 0.554733 9.32436 14.2952
91 2 C 8.9722 3.48218 15.2985
92 2 C 10.4889 3.60081 14.9455
93 4 O 10.7092 3.85738 13.5739
94 1 H 8.83541 3.21678 16.4337
95 1 H 8.38458 4.36073 14.9906
96 1 H 8.55187 2.62422 14.766
97 1 H 11.042 2.58656 15.2744
98 1 H 10.8716 4.49648 15.4597
99 1 H 10.1737 4.65945 13.301
100 2 C 7.55712 14.1112 10.2446
101 2 C 7.02324 13.8509 11.6191
102 4 O 8.03314 13.2161 12.4014
103 1 H 7.5101 13.2686 9.59686
104 1 H 7.08137 14.9262 9.71803
105 1 H 8.60617 14.3746 10.2264
106 1 H 6.0785 13.2927 11.6676
107 1 H 6.88649 14.805 12.0375
108 1 H 7.90193 12.2679 12.3429
109 2 C 4.40739 16.2255 7.71048
110 2 C 5.57051 15.4742 7.02339
111 4 O 4.99756 14.2006 6.62315
112 1 H 3.41826 16.1111 7.26759
113 1 H 4.34528 15.821 8.72196
114 1 H 4.75184 17.2772 7.72258
115 1 H 6.40576 15.2456 7.66916
116 1 H 5.97436 15.9485 6.13896
117 1 H 4.26728 14.3028 5.98075
118 2 C 3.38435 7.18967 8.47203
119 2 C 2.23049 7.99572 9.15566
120 4 O 0.984175 7.61907 8.55559
121 1 H 4.16891 7.80988 8.00215
122 1 H 3.85529 6.46927 9.1431
123 1 H 2.86413 6.55967 7.72413
124 1 H 2.38103 9.08745 9.13681
125 1 H 2.18412 7.65714 10.1971
126 1 H 0.364511 7.87177 9.23899
127 2 C 7.8448 17.9366 16.8143
128 2 C 6.80407 -0.48317 15.8798
129 4 O 6.4561 17.4229 15.0026
130 1 H 8.3352 -0.291179 17.468
131 1 H 7.40894 17.1801 17.4454
132 1 H 8.69434 17.5177 16.2585
133 1 H 7.16097 0.374835 15.3097
134 1 H 5.93235 -0.141364 16.3962
135 1 H 7.21479 17.3176 14.4033
136 2 C 6.77856 10.5463 2.8502
137 2 C 7.80239 11.362 3.50478
138 4 O 9.05822 11.1668 2.86949
139 1 H 7.13977 9.51185 2.77307
140 1 H 5.81428 10.6261 3.38342
141 1 H 6.68004 10.8054 1.83002
142 1 H 7.89492 11.1311 4.54202
143 1 H 7.53497 12.3931 3.36244
144 1 H 9.73267 11.8415 2.86652
145 2 C 9.74692 17.7382 2.75751
146 2 C 9.25643 -0.47755 3.95959
147 4 O 10.1638 -0.846797 5.06516
148 1 H 9.3607 -0.87211 1.80806
149 1 H 10.7956 17.8659 2.62233
150 1 H 9.46122 16.7019 2.81458
151 1 H 8.29265 -0.78867 4.30771
152 1 H 9.22354 0.633567 3.96459
153 1 H 10.5989 17.3512 4.76664
154 2 C 0.198442 0.897105 15.6302
155 2 C 1.00122 2.15698 15.406
156 4 O 0.552815 2.81005 14.206
157 1 H 0.462809 0.173321 14.8591
158 1 H 0.499104 0.442853 16.5726
159 1 H -0.882537 1.09928 15.6785
160 1 H 2.07932 1.93269 15.3466
161 1 H 0.91107 2.85279 16.2421
162 1 H 0.982472 3.68622 14.2872
163 2 C 17.4224 10.8795 4.00944
164 2 C -1.00554 10.1611 5.20768
165 4 O 0.283373 9.52559 4.99617
166 1 H 17.2091 10.1651 3.22537
167 1 H 16.5083 11.2818 4.41088
168 1 H -0.941069 11.6825 3.64945
169 1 H 17.2342 9.43167 5.50968
170 1 H -0.867638 10.8995 6.00822
171 1 H -0.00642109 8.67887 4.6285
172 2 C 12.3934 8.56947 17.8975
173 2 C 11.0852 7.94207 17.4232
174 4 O 10.509 7.25169 -0.492389
175 1 H 12.1051 9.12927 -0.208292
176 1 H 13.2701 7.95247 -0.937369
177 1 H 12.8125 9.24116 17.1534
178 1 H 11.3184 7.19622 16.6031
179 1 H 10.5246 8.75938 17.0144
180 1 H 10.0642 6.51127 -0.916814
181 2 C 1.09116 -0.0795746 7.24303
182 2 C 1.59712 1.39301 6.93406
183 4 O 0.684557 2.50747 7.32012
184 1 H 0.0228414 -0.182852 7.01024
185 1 H 1.72495 -0.679638 6.52531
186 1 H 1.14738 -0.305304 8.29231
187 1 H 1.90021 1.47428 5.8794
188 1 H 2.49988 1.43769 7.55127
189 1 H -0.159987 2.03654 7.46087
190 2 C 7.46638 -0.341911 9.35984
191 2 C 7.11725 17.902 10.6374
192 4 O 8.31076 17.536 11.3398
193 1 H 6.60579 0.117578 8.84238
194 1 H 8.20421 0.401689 9.54704
195 1 H 7.92267 17.9247 8.68388
196 1 H 6.48653 17.0306 10.446
197 1 H 6.53117 -0.502856 11.3568
198 1 H 8.99117 -0.873304 10.9825
199 2 C 10.798 15.4325 12.0174
200 2 C 11.7737 14.2552 12.0672
201 4 O 11.1514 13.0642 11.556
202 1 H 11.4132 16.2944 12.3306
203 1 H 10.3108 15.7469 11.1054
204 1 H 9.98368 15.375 12.7431
205 1 H 12.1114 14.0976 13.0992
206 1 H 12.6547 14.4371 11.4817
207 1 H 10.3004 12.9398 11.9808
208 2 C 3.42976 10.015 1.34148
209 2 C 2.37921 10.6516 2.2897
210 4 O 3.01746 10.8804 3.55572
211 1 H 4.19624 10.7186 1.05062
212 1 H 3.81794 9.21767 1.94004
213 1 H 2.95241 9.56939 0.484216
214 1 H 1.4752 10.0306 2.3962
215 1 H 2.13722 11.6113 1.82138
216 1 H 2.31538 10.9694 4.20203
217 2 C 16.675 10.5294 13.8638
218 2 C 16.7162 8.99707 13.5151
219 4 O 16.4419 8.39943 14.7996
220 1 H 15.8675 10.6282 14.6226
221 1 H 17.5467 10.7661 14.433
222 1 H 16.5667 11.1369 13.0109
223 1 H 17.6537 8.54113 13.2313
224 1 H 16.0101 8.67251 12.7191
225 1 H 15.4804 8.3029 14.9658
226 2 C 15.3513 2.51104 8.47969
227 2 C 16.4788 1.47593 8.45228
228 4 O 17.1272 1.27105 7.23658
229 1 H 14.7393 2.46578 7.57977
230 1 H 14.743 2.34679 9.38267
231 1 H 15.8597 3.46634 8.49987
232 1 H 16.1438 0.52993 8.86635
233 1 H 17.1865 1.94454 9.13705
234 1 H 16.9952 2.12595 6.7907
235 2 C 14.98 17.1866 -0.904327
236 2 C 16.1881 16.9191 17.2754
237 4 O 17.0778 16.0864 -0.926563
238 1 H 14.3903 16.2627 -0.6464
239 1 H 15.2869 17.4957 0.126701
240 1 H 14.3907 -1.07069 17.6197
241 1 H 16.5781 17.8159 16.8154
242 1 H 15.7786 16.3901 16.4694
243 1 H 0.780232 4.12319 8.16882
244 2 C 11.5024 14.509 2.26243
245 2 C 12.3089 14.7791 3.55247
246 4 O 11.4873 15.6187 4.38851
247 1 H 11.7673 13.4738 1.86474
248 1 H 10.4403 14.4241 2.28565
249 1 H 11.9019 15.2233 1.48805
250 1 H 13.3168 15.2657 3.0984
251 1 H 12.5682 13.9344 4.03963
252 1 H 11.6266 15.3513 5.27934
253 2 C -0.808188 6.62779 -0.755471
254 2 C 17.6873 5.82449 16.8874
255 4 O -1.01677 6.46033 15.6557
256 1 H -0.917554 7.70572 -0.858665
257 1 H 17.5912 6.17784 0.046805
258 1 H 0.220263 6.37819 -0.557568
259 1 H 16.6094 5.62095 16.9589
260 1 H -0.845705 4.84838 16.93
261 1 H 17.3215 7.17956 15.63
262 2 C 0.0342789 17.652 3.02696
263 2 C 1.01407 16.5311 3.34592
264 4 O 0.927295 16.3636 4.81624
265 1 H -0.974955 17.2309 3.03221
266 1 H 0.195187 -0.604499 3.7923
267 1 H 0.244617 -0.914979 2.07273
268 1 H 2.01832 16.9064 3.05095
269 1 H 0.75747 15.633 2.82371
270 1 H 1.47113 15.5882 5.1098
271 2 C 11.4824 -0.107015 15.7184
272 2 C 12.7188 0.0860543 14.8629
273 4 O 13.8391 0.369019 15.6807
274 1 H 11.1024 0.802282 16.1266
275 1 H 10.6536 -0.612677 15.2132
276 1 H 11.682 -0.726281 16.5592
277 1 H 12.4618 0.875577 14.1508
278 1 H 12.9967 -0.813941 14.3425
279 1 H 13.6092 1.19538 16.21
280 2 C 8.25377 2.45377 6.8736
281 2 C 9.41244 2.9632 7.68367
282 4 O 8.77029 3.92695 8.53092
283 1 H 7.78084 3.30479 6.38228
284 1 H 8.5587 1.80758 6.07101
285 1 H 7.49731 1.96462 7.46301
286 1 H 10.1428 3.39471 7.04012
287 1 H 9.94621 2.25276 8.32178
288 1 H 9.26927 4.13218 9.34215
289 2 C 7.28663 6.27601 11.2778
290 2 C 7.92264 4.9385 11.5062
291 4 O 9.32426 5.02518 11.1712
292 1 H 7.06127 6.41464 10.2273
293 1 H 6.36483 6.4279 11.8381
294 1 H 8.05505 7.0268 11.5409
295 1 H 7.43246 4.21258 10.8228
296 1 H 7.80873 4.62073 12.5248
297 1 H 9.49662 5.87321 10.7772
298 2 C 12.8762 11.274 4.44775
299 2 C 11.743 11.4399 5.48429
300 4 O 11.4739 10.3198 6.29096
301 1 H 12.6211 11.9073 3.5573
302 1 H 13.9088 11.4171 4.76123
303 1 H 12.7558 10.2505 4.06295
304 1 H 10.8926 11.7678 4.92139
305 1 H 11.9703 12.2906 6.16173
306 1 H 10.9388 9.66966 5.8062
307 2 C 13.2671 7.80772 12.2476
308 2 C 12.8629 8.31867 13.5882
309 4 O 13.6933 8.03869 14.7017
310 1 H 13.3093 6.69293 12.1928
311 1 H 12.504 8.11725 11.4977
312 1 H 14.2563 8.22031 12.0138
313 1 H 11.8426 7.98053 13.7457
314 1 H 12.851 9.39381 13.57
315 1 H 13.6511 7.09555 14.9299
316 2 C 4.00293 11.6496 8.88861
317 2 C 5.31482 11.0606 8.39512
318 4 O 5.88232 11.601 7.22229
319 1 H 3.90238 11.4461 9.9603
320 1 H 3.99492 12.7457 8.84085
321 1 H 3.12646 11.2799 8.35647
322 1 H 5.25636 9.95364 8.16165
323 1 H 6.03788 11.1752 9.2142
324 1 H 5.48495 12.4534 7.00959
325 2 C 17.5715 -0.736877 11.2649
326 2 C -0.812689 0.220241 12.3005
327 4 O 17.6359 1.54774 12.0906
328 1 H -0.979116 -0.498746 10.2979
329 1 H 17.8147 17.1835 11.4269
330 1 H 16.4553 -0.699383 11.0809
331 1 H 0.285947 0.167573 12.0927
332 1 H -0.967497 -0.150818 13.2963
333 1 H -1.0134 2.11713 12.7626
334 2 C 3.22114 6.5392 13.8785
335 2 C 2.64889 6.34904 15.264
336 4 O 1.53616 5.42259 15.2075
337 1 H 4.11053 7.11029 13.7914
338 1 H 3.31343 5.5462 13.3601
339 1 H 2.54513 7.07767 13.2188
340 1 H 2.30881 7.27186 15.7881
341 1 H 3.37252 5.85733 15.9467
342 1 H 0.692776 5.91495 15.067
343 2 C 5.27732 12.9716 15.0895
344 2 C 5.16983 14.4564 15.253
345 4 O 5.08228 15.1151 13.9971
346 1 H 5.52839 12.3592 16.0472
347 1 H 4.30247 12.608 14.696
348 1 H 6.07199 12.7515 14.3842
349 1 H 5.92924 14.9481 15.8267
350 1 H 4.21278 14.5681 15.775
351 1 H 5.2415 16.0428 14.247
352 2 C 5.54708 2.39123 13.0561
353 2 C 5.08842 3.17521 14.2699
354 4 O 5.68829 4.46874 14.254
355 1 H 6.62665 2.52861 13.039
356 1 H 5.26973 1.34124 13.0379
357 1 H 5.25941 2.85141 12.118
358 1 H 5.3136 2.67996 15.2076
359 1 H 3.98866 3.19359 14.3263
360 1 H 4.95724 5.06625 14.2641
361 2 C 14.4628 16.9256 8.36249
362 2 C 13.1154 16.3831 8.86683
363 4 O 13.2249 14.9506 9.01822
364 1 H 14.7732 16.5399 7.39621
365 1 H 14.3424 -0.996697 8.25669
366 1 H 15.2354 16.7801 9.12309
367 1 H 12.372 16.5756 8.10392
368 1 H 12.8941 16.7927 9.84136
369 1 H 12.304 14.6646 8.88172
370 2 C 12.6786 6.2278 8.10207
371 2 C 12.5348 7.52802 7.32553
372 4 O 12.2748 8.57828 8.29538
373 1 H 12.123 6.24212 9.05108
374 1 H 12.1795 5.43367 7.52782
375 1 H 13.6631 5.88213 8.28578
376 1 H 11.6961 7.42952 6.64178
377 1 H 13.3924 7.71618 6.65132
378 1 H 12.0509 9.3557 7.7735
379 2 C 0.331271 5.90482 5.65679
380 2 C 0.22644 6.3306 4.20544
381 4 O -0.895215 7.16956 3.96014
382 1 H -0.37655 5.12303 5.91637
383 1 H 1.30695 5.70509 6.04723
384 1 H 0.0646572 6.75501 6.30136
385 1 H 0.173182 5.45211 3.51846
386 1 H 1.08506 6.93308 3.93903
387 1 H 17.3249 6.67501 4.25986
388 2 C 16.6252 14.3939 12.8601
389 2 C 16.1193 14.3787 11.4534
390 4 O 15.8989 13.0173 11.157
391 1 H 17.2956 13.5303 12.9002
392 1 H 17.0749 15.2982 13.2138
393 1 H 15.8436 14.1439 13.5806
394 1 H 16.9217 14.7313 10.7909
395 1 H 15.1892 14.9544 11.2214
396 1 H 15.5021 12.9925 10.3098
397 2 C 0.313227 11.1977 9.96436
398 2 C -0.460087 10.2937 10.921
399 4 O 0.0443192 8.99405 11.0301
400 1 H 0.331182 10.8062 8.96087
401 1 H 0.0251294 12.2366 10.0422
402 1 H 1.38658 11.1583 10.2558
403 1 H 17.4773 10.1403 10.5624
404 1 H -0.600108 10.7982 11.8922
405 1 H 0.648199 8.95656 11.7921
406 2 C 0.241321 11.6155 17.1643
407 2 C 0.952222 10.347 17.3486
408 4 O 0.451173 9.3892 16.3894
409 1 H 0.584005 12.233 16.3287
410 1 H -0.804716 11.3673 17.1417
411 1 H 0.411681 12.3009 -0.943007
412 1 H 0.918475 9.87625 -0.621976
413 1 H 2.02014 10.4897 17.2128
414 1 H -0.400737 9.15793 16.7542
415 2 C 9.29184 6.60766 6.1469
416 2 C 9.12124 8.05905 6.50636
417 4 O 9.55726 8.90346 5.40267
418 1 H 10.3362 6.43078 5.93017
419 1 H 9.12799 5.94342 6.98798
420 1 H 8.70099 6.31346 5.30275
421 1 H 9.69769 8.38036 7.38332
422 1 H 8.06863 8.27878 6.69927
423 1 H 9.80771 8.38577 4.61802
424 2 C 5.22749 13.8594 2.59893
425 2 C 3.94167 14.5412 3.22229
426 4 O 3.50665 13.8514 4.38848
427 1 H 4.92568 12.8442 2.28309
428 1 H 5.56463 14.4386 1.73409
429 1 H 5.9762 13.9149 3.40636
430 1 H 3.10734 14.5534 2.40256
431 1 H 4.23806 15.5382 3.46321
432 1 H 3.5972 12.8976 4.23108
433 2 C -0.174729 5.237 11.1678
434 2 C -0.216535 4.32159 9.97315
435 4 O 0.798942 4.69326 9.00203
436 1 H -0.409069 6.22354 10.8757
437 1 H -1.03582 4.89018 11.706
438 1 H 0.779643 5.14247 11.61
439 1 H 17.7888 4.33094 9.4475
440 1 H 0.117797 3.35161 10.4211
441 1 H 0.772493 5.62168 8.66495
442 2 C 14.0561 2.59212 0.435667
443 2 C 14.0888 3.70415 -0.60409
444 4 O 13.4432 3.31423 17.2035
445 1 H 14.4124 1.68612 -0.0986602
446 1 H 14.7731 2.85952 1.21429
447 1 H 13.0364 2.45344 0.866897
448 1 H 15.1442 3.82183 -0.800127
449 1 H 13.7058 4.62173 -0.160132
450 1 H 13.6813 3.97925 16.5023
ITEM: TIMESTEP
6800
ITEM: NUMBER OF ATOMS
450
ITEM: BOX BOUNDS pp pp pp
-1.0212227618621057e+00 1.7946222761862142e+01
-1.0212227618621057e+00 1.7946222761862142e+01
-1.0212227618621057e+00 1.7946222761862142e+01
ITEM: ATOMS id type element x y z
1 2 C 12.5901 7.31398 3.37046
2 2 C 11.5376 7.99364 2.43877
3 4 O 10.6492 8.85154 3.09791
4 1 H 13.5948 7.3289 2.93517
5 1 H 12.6607 7.81619 4.32813
6 1 H 12.4198 6.27086 3.53885
7 1 H 10.9433 7.25096 1.93616
8 1 H 11.9791 8.62623 1.65633
9 1 H 9.95209 9.04275 2.44174
10 2 C 13.5902 13.9579 16.7502
11 2 C 14.3571 12.7691 17.3692
12 4 O 15.3419 13.2574 -0.633478
13 1 H 14.2567 14.8077 16.682
14 1 H 13.2637 13.5973 15.7572
15 1 H 12.6827 14.2419 17.253
16 1 H 14.8388 12.1848 16.6427
17 1 H 13.6849 12.0939 17.8962
18 1 H 16.1497 12.8292 -0.894254
19 2 C 13.9019 -0.211214 3.28456
20 2 C 13.4479 1.06963 4.07997
21 4 O 12.9458 0.845605 5.44094
22 1 H 13.108 -0.92229 3.19772
23 1 H 14.2226 0.0127812 2.27489
24 1 H 14.8114 -0.714248 3.69119
25 1 H 12.6611 1.48265 3.42718
26 1 H 14.2321 1.82178 4.23671
27 1 H 12.0521 0.410869 5.37654
28 2 C 16.299 7.19505 9.51084
29 2 C 16.5398 7.57196 8.04357
30 4 O 15.9846 6.59216 7.18322
31 1 H 16.6347 6.16803 9.69888
32 1 H 16.8232 7.87981 10.1993
33 1 H 15.2195 7.24871 9.65113
34 1 H 17.6113 7.62816 7.93289
35 1 H 16.1133 8.5823 7.89167
36 1 H 15.2268 6.17238 7.59239
37 2 C 2.84044 1.3073 10.8303
38 2 C 2.61972 2.71026 11.3393
39 4 O 2.80489 3.79653 10.8715
40 1 H 1.94122 0.851477 10.3441
41 1 H 3.63879 1.12644 10.1046
42 1 H 2.96798 0.665146 11.681
43 1 H 2.05538 2.76047 12.3241
44 1 H 17.0311 16.0465 -0.0603669
45 1 H 8.69703 6.10759 9.20153
46 2 C 8.77459 13.5481 5.83124
47 2 C 9.40402 14.7056 6.48416
48 4 O 10.8161 14.5175 6.67905
49 1 H 7.72495 13.7506 5.61589
50 1 H 9.20797 13.4672 4.83809
51 1 H 8.93627 12.5974 6.32873
52 1 H 8.965 14.9771 7.43079
53 1 H 9.26191 15.5954 5.87635
54 1 H 10.8939 13.7534 7.26182
55 2 C 15.4037 3.41089 14.0444
56 2 C 14.8942 4.86373 14.1487
57 4 O 13.57 4.91048 14.782
58 1 H 14.4457 2.92234 13.8734
59 1 H 15.913 3.33218 13.1284
60 1 H 15.8928 2.81999 14.8993
61 1 H 14.784 5.20006 13.1014
62 1 H 15.5284 5.60753 14.6478
63 1 H 12.7623 4.74653 14.2954
64 2 C 9.7633 9.63844 11.3446
65 2 C 9.55316 8.72587 10.1807
66 4 O 10.5834 7.72694 10.0997
67 1 H 10.5915 10.3371 11.2812
68 1 H 8.81057 10.202 11.4159
69 1 H 9.90119 9.04947 12.2327
70 1 H 9.44785 9.27416 9.2418
71 1 H 8.58606 8.21679 10.3261
72 1 H 11.3504 8.19235 9.69723
73 2 C 4.92992 3.94308 6.90111
74 2 C 5.69798 5.14718 6.45794
75 4 O 6.4455 5.64569 7.6197
76 1 H 4.3382 4.1514 7.75339
77 1 H 4.1543 3.6566 6.20195
78 1 H 5.63004 3.12362 7.07932
79 1 H 5.07354 5.95607 6.09637
80 1 H 6.38051 4.85117 5.65534
81 1 H 6.89523 4.86129 7.9686
82 2 C 2.97192 10.4245 12.4319
83 2 C 1.94733 10.391 13.5796
84 4 O 1.00247 9.275 13.441
85 1 H 3.76537 9.71159 12.6027
86 1 H 2.49542 10.0457 11.5495
87 1 H 3.31435 11.462 12.2492
88 1 H 1.33023 11.2978 13.4215
89 1 H 2.41921 10.3526 14.5592
90 1 H 0.727899 9.22502 14.3801
91 2 C 8.926 3.60452 15.0919
92 2 C 10.3923 3.80385 14.8614
93 4 O 10.8277 4.07016 13.6272
94 1 H 8.8454 3.15772 16.0263
95 1 H 8.38269 4.55205 15.0235
96 1 H 8.48193 2.84383 14.4899
97 1 H 10.8685 2.92814 15.2995
98 1 H 10.5685 4.69628 15.4506
99 1 H 10.1551 4.25114 12.9932
100 2 C 7.95438 14.0811 10.2806
101 2 C 7.38612 13.7645 11.6502
102 4 O 8.17584 12.8135 12.4318
103 1 H 8.20117 13.1364 9.73167
104 1 H 7.25446 14.6666 9.64112
105 1 H 8.87871 14.6644 10.2138
106 1 H 6.37043 13.3708 11.5479
107 1 H 7.3086 14.6744 12.2351
108 1 H 8.04761 11.9544 11.9945
109 2 C 4.32209 16.0684 7.75829
110 2 C 5.4655 15.3202 7.1805
111 4 O 5.2156 14.0287 6.64773
112 1 H 3.75343 16.4726 6.91774
113 1 H 3.70533 15.3652 8.30093
114 1 H 4.73011 16.8846 8.29362
115 1 H 6.24107 15.1372 7.88638
116 1 H 5.92183 15.955 6.39207
117 1 H 4.5123 13.8232 6.03
118 2 C 3.44499 7.40452 8.34826
119 2 C 2.44985 8.2189 9.07158
120 4 O 1.16219 7.60334 8.9161
121 1 H 4.40865 7.71877 8.71734
122 1 H 3.34957 6.36973 8.54735
123 1 H 3.4221 7.66252 7.29857
124 1 H 2.42281 9.27202 8.72841
125 1 H 2.68995 8.31811 10.149
126 1 H 0.639542 7.86586 9.70572
127 2 C 7.78588 17.9052 17.0219
128 2 C 6.92748 -0.33823 15.9934
129 4 O 6.33961 17.728 15.0618
130 1 H 8.07971 -0.464391 17.8335
131 1 H 7.29947 17.0038 17.4806
132 1 H 8.66396 17.5239 16.5185
133 1 H 7.48965 0.444394 15.4756
134 1 H 6.07875 0.156104 16.5179
135 1 H 7.07976 17.2951 14.6163
136 2 C 6.80786 10.351 3.14661
137 2 C 7.94338 11.2364 3.61169
138 4 O 9.13446 10.9571 2.96219
139 1 H 6.99075 9.34564 3.47226
140 1 H 5.78895 10.7021 3.38763
141 1 H 6.90657 10.2652 2.03185
142 1 H 8.05561 11.2504 4.69675
143 1 H 7.68985 12.2467 3.2463
144 1 H 9.66679 10.275 3.35086
145 2 C 9.61073 17.2489 2.74774
146 2 C 9.46787 -0.604356 3.80228
147 4 O 10.0085 -0.734448 5.13711
148 1 H 8.99593 17.4001 1.82078
149 1 H 10.6526 17.2146 2.36795
150 1 H 9.41832 16.2826 3.14206
151 1 H 8.43652 -0.389802 4.08484
152 1 H 9.95361 0.287993 3.46844
153 1 H 10.6246 17.4525 5.24689
154 2 C 0.200251 0.926163 15.7148
155 2 C 0.894955 2.23867 15.3939
156 4 O 0.509635 2.72321 14.1129
157 1 H 0.497748 0.237771 14.9343
158 1 H 0.442316 0.567065 16.7085
159 1 H -0.895105 0.975623 15.7359
160 1 H 1.95812 2.02401 15.3836
161 1 H 0.6998 3.00305 16.1495
162 1 H 0.944942 3.58006 14.0807
163 2 C 17.294 11.0707 4.36998
164 2 C -0.924143 9.94772 5.15224
165 4 O 0.286013 9.63416 4.43177
166 1 H 17.0451 10.6897 3.36717
167 1 H 16.3736 11.443 4.88989
168 1 H -0.998704 11.9228 4.25303
169 1 H 17.4491 9.04152 5.20706
170 1 H -0.555093 10.3257 6.10932
171 1 H -0.0219649 8.97486 3.80663
172 2 C 12.3288 8.78488 -0.924746
173 2 C 11.1559 7.89245 17.506
174 4 O 10.6307 7.03985 -0.346926
175 1 H 11.9598 9.58516 -0.312616
176 1 H 13.0545 8.20466 -0.296372
177 1 H 12.885 9.23826 17.1724
178 1 H 11.4755 7.33008 16.6638
179 1 H 10.417 8.63038 17.1663
180 1 H 9.80774 6.68268 -0.737488
181 2 C 1.51303 -0.0168805 6.92258
182 2 C 1.89121 1.50193 6.84025
183 4 O 1.03917 2.24324 7.67408
184 1 H 0.647646 0.0443864 6.26661
185 1 H 2.25277 -0.693679 6.56063
186 1 H 1.10776 -0.373224 7.88657
187 1 H 1.974 1.88606 5.81691
188 1 H 2.86696 1.60002 7.30586
189 1 H 0.149785 1.88896 7.5508
190 2 C 7.22807 -0.311941 9.3889
191 2 C 7.02111 -0.908124 10.7472
192 4 O 8.21963 17.4269 11.2546
193 1 H 6.25547 -0.221095 8.93721
194 1 H 7.75617 0.662011 9.50577
195 1 H 7.88168 -0.934242 8.746
196 1 H 6.28416 17.2414 10.6485
197 1 H 6.69955 -0.169428 11.4814
198 1 H 8.79215 -0.869921 11.6286
199 2 C 11.0162 15.29 11.9644
200 2 C 11.7095 14.0042 12.2013
201 4 O 10.9927 12.8622 11.6691
202 1 H 11.4306 16.174 12.4207
203 1 H 10.9867 15.5112 10.8564
204 1 H 9.98468 15.1588 12.2931
205 1 H 11.8391 13.8033 13.2715
206 1 H 12.6335 13.9748 11.6595
207 1 H 10.0448 12.8777 11.9631
208 2 C 3.3921 9.98838 1.24603
209 2 C 2.44311 10.8689 2.11585
210 4 O 2.95239 11.0121 3.46423
211 1 H 4.42995 10.3485 1.29599
212 1 H 3.37726 8.94567 1.5722
213 1 H 3.00051 9.9752 0.213255
214 1 H 1.45475 10.4602 2.24957
215 1 H 2.35023 11.8538 1.62951
216 1 H 2.53308 10.2966 3.94621
217 2 C 16.6149 10.9467 14.2889
218 2 C 16.5405 9.50313 13.8135
219 4 O 16.3711 8.45975 14.8051
220 1 H 15.6185 11.2189 14.6389
221 1 H 17.3504 11.0305 15.073
222 1 H 16.8754 11.6119 13.4135
223 1 H 17.3859 9.12847 13.3093
224 1 H 15.6725 9.48221 13.086
225 1 H 15.4354 8.33068 14.9653
226 2 C 15.3011 2.5369 8.6885
227 2 C 16.4102 1.54321 8.64243
228 4 O 16.972 1.66033 7.31139
229 1 H 14.4678 2.31546 7.98061
230 1 H 14.8914 2.71235 9.69952
231 1 H 15.7341 3.4049 8.17921
232 1 H 16.0467 0.533311 8.83707
233 1 H 17.1035 1.80844 9.39268
234 1 H 16.874 0.759111 7.01761
235 2 C 15.0027 17.2662 -0.527832
236 2 C 16.113 16.9301 17.4256
237 4 O 17.1998 16.2464 -0.964105
238 1 H 14.8605 16.4571 0.19155
239 1 H 15.332 -0.851459 0.0883369
240 1 H 14.0023 17.3881 17.9879
241 1 H 16.3973 17.7912 16.848
242 1 H 15.5412 16.1836 16.7924
243 1 H 0.646986 3.85251 8.369
244 2 C 11.4423 14.5468 2.42541
245 2 C 12.3429 14.9699 3.5961
246 4 O 11.7643 15.7363 4.59549
247 1 H 11.7882 13.6581 1.89508
248 1 H 10.672 14.0212 3.02221
249 1 H 10.9806 15.3821 1.89672
250 1 H 13.3197 15.2502 3.38032
251 1 H 12.3747 13.8469 4.00193
252 1 H 11.4681 15.0926 5.28474
253 2 C -0.818892 6.28661 -0.908132
254 2 C 17.4476 5.81567 16.8374
255 4 O -0.845386 6.29388 15.6429
256 1 H 17.8292 7.34784 -0.643909
257 1 H -0.983556 5.67088 -0.0162297
258 1 H 0.243904 6.31528 17.7724
259 1 H 16.4042 6.18938 16.8237
260 1 H 17.4672 4.72906 16.7761
261 1 H 17.5878 7.05598 15.3847
262 2 C 0.42002 17.7155 2.99194
263 2 C 1.37135 16.7395 3.61266
264 4 O 0.870702 16.1252 4.81961
265 1 H -0.574166 17.3244 2.95474
266 1 H 0.487116 -0.224724 3.43057
267 1 H 0.732735 17.6621 1.92917
268 1 H 2.33449 17.2133 3.75301
269 1 H 1.56246 16.0101 2.79758
270 1 H 1.36881 15.3605 5.05215
271 2 C 11.4748 0.247857 15.7011
272 2 C 12.7572 0.280677 14.8576
273 4 O 13.9066 0.920897 15.4249
274 1 H 11.1836 1.16635 16.2371
275 1 H 10.6144 0.00768166 15.0745
276 1 H 11.4509 -0.624835 16.3766
277 1 H 12.4666 0.717501 13.9012
278 1 H 13.0063 -0.775238 14.6607
279 1 H 13.6621 1.41436 16.2307
280 2 C 8.49405 2.2052 6.92646
281 2 C 9.4374 3.09505 7.71096
282 4 O 8.83577 4.11645 8.54069
283 1 H 8.0356 2.70943 6.08852
284 1 H 9.06457 1.33921 6.57306
285 1 H 7.67001 1.81759 7.54914
286 1 H 10.1142 3.5485 6.93459
287 1 H 10.0766 2.4963 8.34854
288 1 H 9.48989 4.21323 9.26181
289 2 C 6.86489 6.1174 11.1294
290 2 C 7.85741 4.92487 11.4067
291 4 O 9.27721 5.00067 11.4288
292 1 H 7.06812 6.65668 10.1919
293 1 H 5.89137 5.65827 10.9881
294 1 H 6.73474 6.86344 11.8939
295 1 H 7.63416 4.12339 10.6854
296 1 H 7.64171 4.55527 12.3907
297 1 H 9.58279 5.85613 11.0517
298 2 C 12.7289 11.0792 4.28947
299 2 C 11.7077 11.4242 5.33021
300 4 O 11.707 10.4837 6.42398
301 1 H 12.5587 11.7183 3.45124
302 1 H 13.7215 11.3711 4.65141
303 1 H 12.7289 10.0416 4.06298
304 1 H 10.7342 11.4077 4.8173
305 1 H 11.9303 12.4242 5.70236
306 1 H 11.0167 9.85771 6.16659
307 2 C 13.0291 7.82216 12.2514
308 2 C 12.7385 8.50944 13.6217
309 4 O 13.5097 7.92742 14.6791
310 1 H 13.1576 6.75263 12.3728
311 1 H 12.2668 7.91695 11.5387
312 1 H 13.9786 8.15092 11.8205
313 1 H 11.6608 8.42054 13.7989
314 1 H 13.0397 9.5698 13.6108
315 1 H 13.5992 6.98425 14.5602
316 2 C 3.83468 11.5462 8.92765
317 2 C 5.2528 11.1462 8.54687
318 4 O 5.66623 11.3267 7.19592
319 1 H 3.50447 10.9359 9.76389
320 1 H 3.7148 12.5647 9.24117
321 1 H 3.12065 11.2992 8.11451
322 1 H 5.32748 10.107 8.65652
323 1 H 5.95491 11.6464 9.2238
324 1 H 5.494 12.2302 6.87729
325 2 C 17.4876 -0.563087 11.4135
326 2 C -0.926149 0.270561 12.4798
327 4 O 17.6903 1.63116 12.225
328 1 H 17.6974 -0.235286 10.4119
329 1 H 17.8337 17.4064 11.4582
330 1 H 16.4079 -0.561778 11.5283
331 1 H 0.145456 0.197394 12.3781
332 1 H 17.8609 -0.129245 13.498
333 1 H -0.844967 2.23478 12.8765
334 2 C 2.9687 6.60937 13.7339
335 2 C 2.48751 6.29983 15.1556
336 4 O 1.50196 5.26579 15.2185
337 1 H 3.82241 7.31696 13.7852
338 1 H 3.35615 5.78058 13.1761
339 1 H 2.18713 7.13345 13.1737
340 1 H 2.01214 7.19454 15.5382
341 1 H 3.27022 6.07822 15.8425
342 1 H 0.645122 5.68877 15.1569
343 2 C 5.00524 13.0204 14.568
344 2 C 5.13037 14.4072 15.2057
345 4 O 5.37518 15.2703 14.1018
346 1 H 4.994 12.2765 15.3143
347 1 H 4.0189 12.9204 14.0859
348 1 H 5.80375 12.8388 13.8473
349 1 H 6.03817 14.5072 15.8516
350 1 H 4.20481 14.5665 15.765
351 1 H 5.53977 16.1577 14.4438
352 2 C 6.01079 2.3061 13.4548
353 2 C 5.12913 3.26971 14.239
354 4 O 5.6519 4.56877 14.0778
355 1 H 7.03643 2.29648 13.7825
356 1 H 5.61029 1.3027 13.6001
357 1 H 5.96104 2.44405 12.361
358 1 H 5.233 2.99033 15.3039
359 1 H 4.10912 3.10622 13.8881
360 1 H 5.09977 5.17813 14.5401
361 2 C 14.689 16.8314 8.32845
362 2 C 13.4805 16.6986 9.22404
363 4 O 12.9858 15.3627 9.24605
364 1 H 14.3501 16.7184 7.28894
365 1 H 15.1658 17.7938 8.50067
366 1 H 15.4084 16.0486 8.52659
367 1 H 12.6996 17.4004 8.91787
368 1 H 13.7239 16.8657 10.2969
369 1 H 12.1879 15.3614 8.72007
370 2 C 12.6399 5.8305 7.97723
371 2 C 12.4984 7.20531 7.27934
372 4 O 12.5929 8.31474 8.20197
373 1 H 11.7566 5.6904 8.6208
374 1 H 12.6355 5.00511 7.25439
375 1 H 13.5901 5.82901 8.56609
376 1 H 11.4881 7.19309 6.8659
377 1 H 13.2714 7.25908 6.51765
378 1 H 12.4914 9.1033 7.6311
379 2 C 0.30175 6.20017 5.773
380 2 C -0.0551536 6.31073 4.29176
381 4 O 17.6712 6.97342 4.02868
382 1 H -0.628008 6.05019 6.34662
383 1 H 0.855789 5.27443 5.94195
384 1 H 0.886249 6.98094 6.26649
385 1 H -0.105368 5.28113 3.9376
386 1 H 0.728703 6.78864 3.7222
387 1 H 17.1971 7.02074 4.87449
388 2 C 16.7081 14.6442 12.7729
389 2 C 16.4003 14.3337 11.2971
390 4 O 16.3047 12.9241 11.0601
391 1 H 17.6935 14.3033 13.1054
392 1 H 16.7015 15.7399 12.8418
393 1 H 15.9112 14.2752 13.455
394 1 H 17.1115 14.8196 10.6397
395 1 H 15.4246 14.7298 11.0982
396 1 H 15.7505 12.7986 10.317
397 2 C 0.500025 10.9924 9.63321
398 2 C -0.315979 10.3396 10.7378
399 4 O 0.118567 8.94081 10.8886
400 1 H -0.130123 11.127 8.70265
401 1 H 0.816776 11.9945 9.92194
402 1 H 1.35338 10.4655 9.26354
403 1 H 17.5776 10.3791 10.5916
404 1 H -0.160547 10.7977 11.6784
405 1 H 0.434776 8.82797 11.8052
406 2 C 0.011865 11.931 16.932
407 2 C 0.669479 10.5852 17.1761
408 4 O 0.535213 9.51304 16.1868
409 1 H -0.0146822 12.2224 15.9083
410 1 H -1.02277 11.9848 17.3207
411 1 H 0.559846 12.6646 17.5699
412 1 H 0.559096 10.1352 -0.840807
413 1 H 1.73343 10.7583 17.0674
414 1 H -0.364566 9.20342 16.2558
415 2 C 8.84628 6.43259 5.89199
416 2 C 8.86313 7.84113 6.51328
417 4 O 9.33659 8.85907 5.66387
418 1 H 9.89109 6.13108 5.7269
419 1 H 8.44165 5.66414 6.55687
420 1 H 8.30589 6.3855 4.94831
421 1 H 9.41305 7.90815 7.44281
422 1 H 7.83682 8.06069 6.8101
423 1 H 9.68864 8.47854 4.85505
424 2 C 5.47046 13.9245 2.55871
425 2 C 4.31102 14.4066 3.43698
426 4 O 3.64552 13.4696 4.29089
427 1 H 5.07994 13.0931 2.05383
428 1 H 5.7262 14.7089 1.81646
429 1 H 6.32624 13.7334 3.22855
430 1 H 3.64074 14.8584 2.79171
431 1 H 4.77434 15.1586 4.08714
432 1 H 3.54902 12.5622 3.9494
433 2 C 0.198377 5.23091 11.2839
434 2 C -0.257653 4.33594 10.1302
435 4 O 0.523638 4.54501 9.03522
436 1 H 0.318253 6.26382 10.8357
437 1 H -0.544588 5.27784 12.0551
438 1 H 1.19944 4.81126 11.5782
439 1 H 17.6138 4.36094 9.92399
440 1 H -0.209167 3.35311 10.5269
441 1 H 0.839146 5.4614 8.88661
442 2 C 13.8995 2.66434 0.444057
443 2 C 13.9713 3.7164 -0.683124
444 4 O 13.1259 3.16268 17.2529
445 1 H 14.5377 1.83513 0.149006
446 1 H 14.2424 3.02692 1.39848
447 1 H 12.8889 2.30282 0.498841
448 1 H 15.0216 3.84707 -1.01233
449 1 H 13.5522 4.64712 -0.313116
450 1 H 13.1984 3.74013 16.5128
ITEM: TIMESTEP
6900
ITEM: NUMBER OF ATOMS
450
ITEM: BOX BOUNDS pp pp pp
-1.0164534581116502e+00 1.7941453458111674e+01
-1.0164534581116502e+00 1.7941453458111674e+01
-1.0164534581116502e+00 1.7941453458111674e+01
ITEM: ATOMS id type element x y z
1 2 C 12.4656 7.54897 3.69445
2 2 C 11.7468 8.20818 2.54526
3 4 O 10.3686 8.3235 3.00632
4 1 H 13.4177 7.08418 3.33878
5 1 H 12.7552 8.28496 4.46965
6 1 H 11.842 6.78978 4.1728
7 1 H 11.8183 7.52929 1.70889
8 1 H 12.1774 9.18529 2.2462
9 1 H 9.99169 9.1708 2.76892
10 2 C 13.863 13.9975 16.7668
11 2 C 14.4093 12.7638 17.4285
12 4 O 15.4819 13.0022 -0.618977
13 1 H 14.4542 14.195 15.8667
14 1 H 12.8199 13.89 16.4635
15 1 H 13.9581 14.9074 17.3995
16 1 H 14.7923 12.0512 16.6803
17 1 H 13.6791 12.1545 -0.934401
18 1 H 15.8076 13.8769 -0.816658
19 2 C 13.6867 -0.152636 3.55781
20 2 C 13.0674 0.966783 4.27277
21 4 O 13.2336 0.754495 5.67083
22 1 H 13.1684 -1.09224 3.77944
23 1 H 13.7069 0.0700016 2.4636
24 1 H 14.7383 -0.26655 3.88174
25 1 H 12.0282 0.947141 3.98134
26 1 H 13.4517 1.92686 4.02089
27 1 H 12.4957 0.225732 6.02046
28 2 C 16.5046 7.45742 9.32424
29 2 C 16.7426 7.30587 7.81583
30 4 O 16.1629 6.12975 7.19664
31 1 H 16.9848 6.61171 9.82366
32 1 H 16.9625 8.3567 9.7141
33 1 H 15.4316 7.60286 9.5675
34 1 H 17.7992 7.21471 7.75195
35 1 H 16.3612 8.19257 7.30928
36 1 H 15.2166 6.23973 7.2884
37 2 C 2.77559 1.46499 10.6091
38 2 C 2.75795 2.80062 11.1942
39 4 O 3.14842 3.81884 10.7041
40 1 H 1.86257 1.19924 10.1665
41 1 H 3.48532 1.36742 9.78615
42 1 H 3.01071 0.696059 11.3708
43 1 H 2.30832 2.92131 12.1859
44 1 H 17.2912 15.7855 -0.339894
45 1 H 8.2881 6.17032 8.98821
46 2 C 8.55981 13.4991 6.11091
47 2 C 9.37177 14.6817 6.68166
48 4 O 10.7765 14.4853 6.64503
49 1 H 7.48253 13.5548 6.0813
50 1 H 8.94047 13.3565 5.07532
51 1 H 8.90827 12.5642 6.56198
52 1 H 9.08662 14.9154 7.7277
53 1 H 9.19993 15.6197 6.13269
54 1 H 10.9664 13.624 7.04534
55 2 C 14.7634 3.50453 14.023
56 2 C 14.4024 4.91407 14.0683
57 4 O 13.2441 5.10694 14.9088
58 1 H 14.0032 2.94797 13.4685
59 1 H 15.8267 3.42608 13.5991
60 1 H 14.8696 2.99843 14.9258
61 1 H 14.0189 5.17297 13.0783
62 1 H 15.2137 5.65175 14.3082
63 1 H 12.4573 5.12919 14.2929
64 2 C 9.48768 9.36492 11.2478
65 2 C 9.55047 8.56352 9.91541
66 4 O 10.6889 7.71302 9.90027
67 1 H 10.2615 10.1231 11.364
68 1 H 8.50697 9.84727 11.3681
69 1 H 9.66519 8.66394 12.0443
70 1 H 9.4398 9.15166 8.9804
71 1 H 8.68893 7.93024 9.96529
72 1 H 11.4663 8.15774 9.59535
73 2 C 4.90002 3.75348 6.6649
74 2 C 5.80655 4.96472 6.49583
75 4 O 6.22807 5.59728 7.67871
76 1 H 3.92589 3.95724 7.17899
77 1 H 4.68453 3.28901 5.68101
78 1 H 5.47007 3.05106 7.27118
79 1 H 5.28704 5.72769 5.91003
80 1 H 6.63041 4.66041 5.8359
81 1 H 7.03674 5.19425 7.9773
82 2 C 2.73111 10.1835 12.0525
83 2 C 1.85298 10.4415 13.254
84 4 O 1.02038 9.31463 13.4193
85 1 H 3.22998 9.21225 12.2983
86 1 H 2.15357 10.1291 11.0849
87 1 H 3.47592 10.9062 12.031
88 1 H 1.29094 11.3519 13.0895
89 1 H 2.46546 10.6667 14.1327
90 1 H 0.817276 9.34001 14.3669
91 2 C 9.07839 3.68954 14.7885
92 2 C 10.453 4.29699 15.046
93 4 O 11.1803 4.31125 13.6612
94 1 H 8.34622 3.72409 15.6428
95 1 H 8.6459 4.35872 14.0309
96 1 H 9.02914 2.61635 14.4825
97 1 H 11.0287 3.66302 15.6701
98 1 H 10.3987 5.32694 15.5411
99 1 H 10.5948 4.62103 12.9261
100 2 C 8.27832 13.9215 10.3151
101 2 C 7.67802 13.6714 11.6924
102 4 O 8.23985 12.5666 12.398
103 1 H 8.10835 13.0694 9.65559
104 1 H 7.73997 14.7411 9.88254
105 1 H 9.32871 14.1688 10.3124
106 1 H 6.62118 13.4949 11.5184
107 1 H 7.71246 14.5644 12.3699
108 1 H 8.15175 11.7923 11.8209
109 2 C 4.10219 15.8469 7.68462
110 2 C 5.489 15.1587 7.22632
111 4 O 5.38871 13.8599 6.72734
112 1 H 3.53582 16.104 6.77852
113 1 H 3.61595 15.1463 8.36443
114 1 H 4.3618 16.7731 8.23555
115 1 H 6.26791 15.2063 8.03508
116 1 H 5.8859 15.7535 6.41153
117 1 H 4.90188 13.7376 5.88026
118 2 C 3.74275 7.2785 8.06856
119 2 C 2.65444 8.05714 8.77463
120 4 O 1.50199 7.25946 9.12373
121 1 H 4.6267 7.11941 8.68162
122 1 H 3.35726 6.25665 7.8259
123 1 H 4.0549 7.86897 7.20065
124 1 H 2.24131 8.84493 8.18431
125 1 H 3.02529 8.48061 9.68616
126 1 H 1.08818 7.62 9.90323
127 2 C 7.70294 17.8541 17.2183
128 2 C 7.02386 -0.207661 16.1927
129 4 O 6.44283 -0.69645 14.9706
130 1 H 8.07999 -0.435793 18.0359
131 1 H 7.07176 17.1256 17.7353
132 1 H 8.51793 17.2708 16.7973
133 1 H 7.7168 0.587203 15.95
134 1 H 6.19398 0.20507 16.76
135 1 H 7.08689 17.7582 14.4785
136 2 C 6.84521 10.0518 3.38604
137 2 C 7.85184 11.1509 3.72513
138 4 O 9.13386 10.8771 3.0106
139 1 H 7.15915 9.04472 3.64984
140 1 H 5.94873 10.2605 3.93472
141 1 H 6.53971 10.1689 2.34152
142 1 H 8.05997 11.0688 4.81067
143 1 H 7.40751 12.1327 3.53199
144 1 H 9.68203 11.6372 3.24212
145 2 C 9.28977 17.2384 2.90698
146 2 C 9.46629 -0.510441 3.73066
147 4 O 10.211 -0.827878 4.9303
148 1 H 8.63929 17.6078 2.14869
149 1 H 10.2091 16.8417 2.45255
150 1 H 8.81906 16.3708 3.41428
151 1 H 8.52401 0.0898894 3.94745
152 1 H 10.1138 0.187204 3.15015
153 1 H 10.7194 17.3528 4.84852
154 2 C 0.18519 0.972088 15.7321
155 2 C 0.830803 2.34621 15.5409
156 4 O 0.47949 2.83518 14.2514
157 1 H 0.617684 0.176609 15.126
158 1 H 0.257296 0.713796 16.8002
159 1 H -0.878768 0.918007 15.5106
160 1 H 1.92529 2.20296 15.595
161 1 H 0.519512 3.01948 16.3395
162 1 H 0.96793 3.67305 14.1671
163 2 C 17.2915 11.1598 4.7695
164 2 C -0.629856 10.1036 5.08748
165 4 O 0.0891506 9.67844 3.93049
166 1 H 16.7493 10.8872 3.87878
167 1 H 16.5573 11.2899 5.53954
168 1 H 17.7722 12.1126 4.57117
169 1 H 17.9278 9.21132 5.59202
170 1 H 0.118887 10.4849 5.77001
171 1 H -0.234511 8.81307 3.68055
172 2 C 12.1616 8.85861 -1.00438
173 2 C 11.2477 7.78492 17.4428
174 4 O 10.806 7.05215 -0.436907
175 1 H 11.7717 9.75267 -0.495193
176 1 H 12.7481 8.3844 -0.237662
177 1 H 12.6915 9.243 17.111
178 1 H 11.84 7.23158 16.6633
179 1 H 10.4001 8.25998 16.8939
180 1 H 10.226 6.35285 -0.790258
181 2 C 1.95335 0.102314 6.59221
182 2 C 2.09533 1.50245 6.98141
183 4 O 1.09486 1.93766 7.87668
184 1 H 0.967692 -0.0665879 6.15528
185 1 H 2.70112 -0.042828 5.80716
186 1 H 2.25625 -0.599236 7.38463
187 1 H 1.9575 2.14482 6.10709
188 1 H 3.12508 1.71177 7.29843
189 1 H 0.501573 2.29928 7.19191
190 2 C 7.01602 -0.264702 9.46938
191 2 C 6.88181 -0.953051 10.8591
192 4 O 8.08759 17.4152 11.3106
193 1 H 6.16009 0.391012 9.37588
194 1 H 7.88762 0.391469 9.51331
195 1 H 7.07323 -0.934523 8.63158
196 1 H 6.18795 17.1976 10.7824
197 1 H 6.52951 -0.252615 11.6127
198 1 H 8.82638 -0.942136 11.2532
199 2 C 11.2358 15.1713 12.0545
200 2 C 11.6549 13.6976 12.3913
201 4 O 10.9277 12.7475 11.7023
202 1 H 11.9979 15.8613 12.4207
203 1 H 11.2796 15.2436 10.9762
204 1 H 10.2788 15.4737 12.46
205 1 H 11.5819 13.4579 13.444
206 1 H 12.7288 13.5351 12.0723
207 1 H 10.0649 12.8082 12.0772
208 2 C 3.31226 9.99489 1.1837
209 2 C 2.56003 11.0486 1.87738
210 4 O 2.75858 11.0441 3.27485
211 1 H 4.3853 9.97892 1.36705
212 1 H 2.96125 9.00292 1.50432
213 1 H 3.09612 10.0408 0.122198
214 1 H 1.47338 11.0196 1.75528
215 1 H 2.83062 12.0362 1.47896
216 1 H 1.98325 10.5338 3.57478
217 2 C 16.4222 11.1049 14.5963
218 2 C 16.3867 9.78797 13.9219
219 4 O 16.1816 8.71117 14.8349
220 1 H 15.4725 11.4765 14.8944
221 1 H 17.2136 11.041 15.3249
222 1 H 16.7415 11.8236 13.8221
223 1 H 17.3201 9.53375 13.379
224 1 H 15.5986 9.85493 13.2223
225 1 H 15.2178 8.51709 14.8436
226 2 C 15.1966 2.70697 8.87285
227 2 C 16.5011 1.84541 8.76575
228 4 O 16.9293 1.77152 7.39106
229 1 H 14.4431 2.15537 8.33484
230 1 H 14.8406 2.68922 9.8824
231 1 H 15.1526 3.74467 8.52303
232 1 H 16.204 0.84238 9.12161
233 1 H 17.3449 2.14903 9.47391
234 1 H 17.6576 1.15919 7.38874
235 2 C 15.0566 17.3792 -0.200766
236 2 C 16.0177 16.9076 17.5944
237 4 O 17.3306 16.5416 -0.915866
238 1 H 14.5128 16.5683 0.233451
239 1 H 15.5916 17.9323 0.530797
240 1 H 14.1837 18.0095 -0.634362
241 1 H 16.3261 17.861 17.0875
242 1 H 15.5207 16.2379 16.8855
243 1 H 0.912602 4.18793 8.61994
244 2 C 11.5324 14.2556 2.73273
245 2 C 12.6392 15.0527 3.55805
246 4 O 12.0555 15.9766 4.50872
247 1 H 12.0073 13.6506 1.97199
248 1 H 11.0543 13.5731 3.53486
249 1 H 10.6718 14.8217 2.52872
250 1 H 13.4585 15.6188 2.94348
251 1 H 13.2774 14.3509 4.08609
252 1 H 11.7379 15.5671 5.32821
253 2 C -0.806289 5.98614 -1.0499
254 2 C 17.2367 5.82097 16.7106
255 4 O -1.04705 6.32016 15.6028
256 1 H -0.719442 7.02305 -0.841834
257 1 H 17.6741 5.64774 -0.134033
258 1 H 0.208595 5.62897 17.7634
259 1 H 16.2467 6.23098 16.8338
260 1 H 17.161 4.74589 16.484
261 1 H 17.6287 7.21006 15.3568
262 2 C 0.76885 17.7608 3.07555
263 2 C 1.69331 16.7428 3.79345
264 4 O 0.915462 16.0406 4.70988
265 1 H -0.00862137 17.1842 2.58806
266 1 H 0.230226 -0.732752 3.88529
267 1 H 1.17138 -0.466784 2.36133
268 1 H 2.57117 17.1414 4.32371
269 1 H 2.09506 16.0649 3.05795
270 1 H 1.42376 15.4202 5.17541
271 2 C 11.604 0.413221 15.7814
272 2 C 12.7324 0.626633 14.8085
273 4 O 13.8767 1.11295 15.4927
274 1 H 11.4746 1.29087 16.4317
275 1 H 10.6168 0.232058 15.3649
276 1 H 11.8256 -0.411454 16.4874
277 1 H 12.3773 1.26685 13.9951
278 1 H 13.01 -0.325955 14.3581
279 1 H 13.6211 1.77655 16.168
280 2 C 8.78142 2.15284 6.93471
281 2 C 9.6272 3.10383 7.80202
282 4 O 8.76868 4.07901 8.34464
283 1 H 8.13982 2.64077 6.19193
284 1 H 9.43116 1.38759 6.49229
285 1 H 8.16378 1.59459 7.64304
286 1 H 10.3823 3.56543 7.18799
287 1 H 10.1281 2.52443 8.59267
288 1 H 9.2682 4.454 9.05249
289 2 C 6.69321 5.77325 11.1552
290 2 C 7.62568 4.70379 11.4452
291 4 O 8.976 5.29175 11.5347
292 1 H 6.94799 6.31441 10.229
293 1 H 5.65394 5.46831 11.0884
294 1 H 6.68295 6.47831 11.9704
295 1 H 7.6362 3.8284 10.8252
296 1 H 7.43722 4.30849 12.4756
297 1 H 9.11752 5.84123 10.7492
298 2 C 12.6378 10.8991 4.20138
299 2 C 11.8236 11.4288 5.4336
300 4 O 11.7901 10.4768 6.50181
301 1 H 13.0048 11.6952 3.55163
302 1 H 13.5497 10.4637 4.64141
303 1 H 12.0817 10.1411 3.69217
304 1 H 10.7953 11.693 5.15596
305 1 H 12.3394 12.2802 5.83093
306 1 H 11.0395 9.87974 6.36347
307 2 C 12.8846 7.82877 12.4107
308 2 C 12.6948 8.50897 13.7396
309 4 O 13.5237 7.85381 14.7296
310 1 H 12.1389 7.09038 12.1235
311 1 H 12.8626 8.57298 11.6183
312 1 H 13.8566 7.34333 12.2335
313 1 H 11.6182 8.41969 13.934
314 1 H 12.9174 9.57412 13.7091
315 1 H 13.3878 6.88276 14.6289
316 2 C 3.8622 11.5918 8.76383
317 2 C 5.30492 11.1386 8.68543
318 4 O 5.51145 11.0418 7.26496
319 1 H 3.42433 11.6041 9.74485
320 1 H 3.71629 12.568 8.27265
321 1 H 3.29868 10.8304 8.24817
322 1 H 5.45888 10.1479 9.18719
323 1 H 6.01689 11.8598 9.10471
324 1 H 5.35466 11.9206 6.90661
325 2 C 17.3581 -0.486659 11.4007
326 2 C -1.03773 0.310525 12.5931
327 4 O 17.8259 1.66839 12.3645
328 1 H 17.8024 -0.313252 10.3941
329 1 H 17.4075 17.367 11.5862
330 1 H 16.3083 -0.203185 11.3501
331 1 H 0.0355087 0.0377022 12.7831
332 1 H 17.3337 0.0153721 13.4506
333 1 H -0.628992 2.16808 12.9949
334 2 C 2.69082 6.62195 13.5697
335 2 C 2.41732 6.17176 14.974
336 4 O 1.53353 5.0855 15.0418
337 1 H 3.34744 7.52108 13.651
338 1 H 3.25066 5.9348 12.9616
339 1 H 1.71346 6.8577 13.1398
340 1 H 1.97784 7.02699 15.504
341 1 H 3.36024 5.87355 15.5081
342 1 H 0.642337 5.5098 15.0483
343 2 C 4.73096 13.0603 14.1614
344 2 C 5.14299 14.2246 15.0184
345 4 O 5.48948 15.3752 14.2292
346 1 H 4.04756 12.4233 14.6731
347 1 H 4.20534 13.3129 13.1419
348 1 H 5.64463 12.5053 13.8643
349 1 H 6.04852 13.9752 15.5188
350 1 H 4.37261 14.4077 15.7843
351 1 H 5.63847 16.1319 14.7957
352 2 C 5.97579 2.13934 13.7415
353 2 C 5.12132 3.28337 14.2065
354 4 O 5.77618 4.55402 13.9348
355 1 H 6.88453 2.03805 14.3241
356 1 H 5.51606 1.15471 13.8403
357 1 H 6.22045 2.2349 12.6865
358 1 H 4.99141 3.23798 15.2717
359 1 H 4.20178 3.22248 13.6276
360 1 H 5.07496 5.2056 13.8762
361 2 C 14.807 16.7097 8.30149
362 2 C 13.918 16.7398 9.50769
363 4 O 12.7403 15.9332 9.29437
364 1 H 14.1763 16.8413 7.42597
365 1 H 15.5477 17.5295 8.32695
366 1 H 15.2855 15.7363 8.19602
367 1 H 13.6096 17.7655 9.77077
368 1 H 14.3398 16.4076 10.4238
369 1 H 12.792 15.7181 8.37597
370 2 C 12.4981 5.60916 7.94945
371 2 C 12.5602 6.94056 7.16284
372 4 O 12.8403 7.98949 8.04171
373 1 H 11.5114 5.27247 8.15964
374 1 H 13.0629 4.87931 7.40565
375 1 H 12.9778 5.82101 8.90642
376 1 H 11.6829 7.17863 6.55211
377 1 H 13.4167 6.84257 6.50322
378 1 H 12.7719 8.81754 7.55437
379 2 C 0.320262 6.37758 5.72688
380 2 C -0.395897 6.00902 4.43638
381 4 O 17.4335 6.86978 4.20734
382 1 H -0.0653641 5.79266 6.56125
383 1 H 1.39416 6.12717 5.67768
384 1 H 0.119138 7.39851 5.98288
385 1 H -0.636911 4.95363 4.45564
386 1 H 0.288244 6.18106 3.57559
387 1 H 16.653 6.44434 4.57479
388 2 C 16.7581 14.7966 12.577
389 2 C 16.5427 14.356 11.1486
390 4 O 16.7343 12.9084 11.1034
391 1 H 17.7815 14.7448 12.8977
392 1 H 16.4936 15.855 12.644
393 1 H 16.0935 14.2153 13.1812
394 1 H 17.1861 14.9245 10.4397
395 1 H 15.4929 14.585 10.9039
396 1 H 16.5321 12.6058 10.2097
397 2 C 0.267399 10.9244 9.38112
398 2 C -0.327079 10.5523 10.6655
399 4 O -0.150369 9.13837 10.8809
400 1 H -0.200796 10.4179 8.5623
401 1 H 0.107222 11.9778 9.14983
402 1 H 1.31158 10.7571 9.38482
403 1 H 17.5826 10.7936 10.7429
404 1 H 0.239416 11.0538 11.4881
405 1 H 0.0427076 8.95792 11.7952
406 2 C -0.13417 12.0726 16.7602
407 2 C 0.647424 10.7475 17.008
408 4 O 0.185065 9.74811 16.0782
409 1 H 0.00386344 12.3179 15.692
410 1 H 17.737 11.9704 16.8344
411 1 H 0.10352 12.8193 17.4476
412 1 H 0.518832 10.2671 -0.957109
413 1 H 1.7241 10.8289 16.735
414 1 H -0.409836 9.21164 16.608
415 2 C 8.79727 6.52695 5.36404
416 2 C 8.77652 7.65548 6.36625
417 4 O 9.31955 8.91119 5.86156
418 1 H 9.66892 6.48846 4.72154
419 1 H 8.66952 5.58372 5.92346
420 1 H 7.92462 6.54623 4.68323
421 1 H 9.43864 7.42872 7.22194
422 1 H 7.73678 7.69048 6.70213
423 1 H 9.74567 8.74165 5.00345
424 2 C 5.571 13.8231 2.69096
425 2 C 4.36966 14.4251 3.41922
426 4 O 4.00531 13.5391 4.42378
427 1 H 5.22383 13.1151 1.90579
428 1 H 6.14151 14.6149 2.25258
429 1 H 6.11668 13.2502 3.42845
430 1 H 3.54755 14.6417 2.66875
431 1 H 4.65082 15.3909 3.91817
432 1 H 3.81591 12.7023 3.97591
433 2 C 0.201897 5.23544 11.5641
434 2 C -0.177578 4.3705 10.3746
435 4 O 0.364338 4.83881 9.08384
436 1 H -0.241041 6.22666 11.4421
437 1 H -0.0914504 4.80574 12.5544
438 1 H 1.305 5.40106 11.5931
439 1 H 17.7379 4.33389 10.2304
440 1 H 0.163362 3.3422 10.5699
441 1 H 0.751354 5.7691 9.07003
442 2 C 13.756 2.68478 0.391909
443 2 C 13.6828 3.64531 -0.795258
444 4 O 12.9651 3.19264 17.0144
445 1 H 14.061 1.65361 0.215606
446 1 H 14.5282 3.11505 1.06351
447 1 H 12.8157 2.64511 0.934422
448 1 H 14.6556 4.01964 17.8608
449 1 H 13.1469 4.529 -0.406353
450 1 H 13.0106 3.8659 16.2453
ITEM: TIMESTEP
7000
ITEM: NUMBER OF ATOMS
450
ITEM: BOX BOUNDS pp pp pp
-1.0302005707478372e+00 1.7955200570747841e+01
-1.0302005707478372e+00 1.7955200570747841e+01
-1.0302005707478372e+00 1.7955200570747841e+01
ITEM: ATOMS id type element x y z
1 2 C 12.438 7.54161 3.91157
2 2 C 11.64 7.9286 2.68888
3 4 O 10.2588 8.09263 3.07881
4 1 H 13.4656 7.74456 3.78736
5 1 H 12.1308 8.08511 4.78615
6 1 H 12.2322 6.49941 4.1356
7 1 H 11.8114 7.1216 1.95756
8 1 H 12.0364 8.81412 2.21584
9 1 H 9.84971 8.59746 2.36888
10 2 C 14.0145 13.8616 16.7653
11 2 C 14.3575 12.7668 17.7326
12 4 O 15.6869 12.9745 -0.781689
13 1 H 14.7624 13.907 15.9817
14 1 H 13.1026 13.6997 16.2235
15 1 H 13.9507 14.8263 17.2645
16 1 H 14.3415 11.7831 17.2032
17 1 H 13.7237 12.6964 -0.4105
18 1 H 15.6596 13.1465 0.165598
19 2 C 13.5422 -0.110172 3.62704
20 2 C 12.9234 0.960639 4.58474
21 4 O 13.2394 0.708005 5.92944
22 1 H 13.5311 17.8974 4.12924
23 1 H 13.0213 -0.109382 2.68655
24 1 H 14.5591 0.133468 3.4737
25 1 H 11.8345 0.979349 4.43623
26 1 H 13.312 1.97992 4.33525
27 1 H 12.7136 0.0210623 6.29927
28 2 C 16.404 7.56329 9.04105
29 2 C 16.8634 7.20106 7.67265
30 4 O 16.3696 5.9409 7.25436
31 1 H 16.7011 6.80119 9.7502
32 1 H 16.8285 8.48472 9.37661
33 1 H 15.3297 7.67721 9.09651
34 1 H 17.9688 7.14261 7.65166
35 1 H 16.5556 7.96061 6.91002
36 1 H 15.6302 5.76938 7.83657
37 2 C 2.77532 1.57301 10.4676
38 2 C 2.77452 2.94775 11.0682
39 4 O 3.56402 3.71181 10.56
40 1 H 1.80368 1.20456 10.0738
41 1 H 3.40536 1.59686 9.57931
42 1 H 3.23217 0.816676 11.1171
43 1 H 2.19602 3.22692 11.9307
44 1 H 17.3381 15.8489 -1.08671
45 1 H 8.87977 6.04236 8.40275
46 2 C 8.62886 13.5295 6.32852
47 2 C 9.38148 14.6882 6.91491
48 4 O 10.8369 14.5082 6.66996
49 1 H 7.59565 13.812 6.47098
50 1 H 8.86199 13.2622 5.30504
51 1 H 8.68366 12.6329 6.93807
52 1 H 9.14367 14.6929 7.96873
53 1 H 9.11725 15.6062 6.42614
54 1 H 11.2077 13.9655 7.37082
55 2 C 14.6026 3.62952 13.7766
56 2 C 14.3513 5.1065 14.019
57 4 O 13.3293 5.3773 15.0257
58 1 H 13.7805 2.98116 13.5018
59 1 H 15.4491 3.44483 13.1315
60 1 H 15.0683 3.25865 14.6817
61 1 H 14.0699 5.70174 13.1687
62 1 H 15.2406 5.48549 14.4567
63 1 H 12.5102 5.37262 14.471
64 2 C 9.33367 9.17046 11.1095
65 2 C 9.62681 8.64355 9.73656
66 4 O 10.4509 7.48079 9.75721
67 1 H 10.1228 9.8765 11.4178
68 1 H 8.40578 9.69104 11.1872
69 1 H 9.31375 8.32071 11.8368
70 1 H 10.077 9.38376 9.10281
71 1 H 8.66103 8.34347 9.30188
72 1 H 11.2829 7.69998 9.28516
73 2 C 4.88035 3.56671 6.56291
74 2 C 5.84266 4.79413 6.41277
75 4 O 6.26857 5.28276 7.64744
76 1 H 3.98283 3.90727 7.09012
77 1 H 4.72528 3.17091 5.57689
78 1 H 5.26886 2.78265 7.19987
79 1 H 5.29607 5.5543 5.82917
80 1 H 6.68534 4.46685 5.82216
81 1 H 7.1532 4.93098 7.83724
82 2 C 2.66631 10.0373 11.8769
83 2 C 1.98433 10.4184 13.2219
84 4 O 0.927697 9.49503 13.4291
85 1 H 3.02532 9.01449 11.9646
86 1 H 1.9836 10.2235 11.0212
87 1 H 3.59227 10.6339 11.7946
88 1 H 1.71183 11.5091 13.3354
89 1 H 2.67648 10.2427 14.0515
90 1 H 0.60826 9.48793 14.3562
91 2 C 8.99296 3.69181 14.7337
92 2 C 10.1901 4.68932 14.7878
93 4 O 11.0598 4.52712 13.6725
94 1 H 8.37078 3.63344 15.6881
95 1 H 8.2349 3.79756 13.9769
96 1 H 9.42633 2.72851 14.5493
97 1 H 10.8419 4.58361 15.7742
98 1 H 9.97866 5.73799 14.8926
99 1 H 10.5815 4.68112 12.8375
100 2 C 8.33746 13.7615 10.3099
101 2 C 7.83796 13.6765 11.7307
102 4 O 8.18553 12.4242 12.3054
103 1 H 7.67689 13.217 9.63463
104 1 H 8.31327 14.8163 9.99459
105 1 H 9.35094 13.3489 10.3021
106 1 H 6.76505 13.8828 11.7428
107 1 H 8.29323 14.386 12.3969
108 1 H 7.79483 11.6744 11.8612
109 2 C 4.04633 15.5124 7.5365
110 2 C 5.47167 15.0972 7.32022
111 4 O 5.41079 13.7224 6.83804
112 1 H 3.47927 15.0986 6.73146
113 1 H 3.76052 15.1628 8.51492
114 1 H 3.97623 16.6104 7.59016
115 1 H 6.04533 15.127 8.23933
116 1 H 5.96698 15.7234 6.56342
117 1 H 4.7737 13.6491 6.11574
118 2 C 3.76166 6.9933 7.87272
119 2 C 2.67323 7.96764 8.42812
120 4 O 1.91614 7.26934 9.44522
121 1 H 3.91438 6.20083 8.59772
122 1 H 3.3245 6.57943 6.96082
123 1 H 4.71362 7.44272 7.64807
124 1 H 1.96601 8.27664 7.63592
125 1 H 3.1335 8.83332 8.94586
126 1 H 1.30096 7.87014 9.92029
127 2 C 7.53573 17.8334 17.202
128 2 C 7.15094 0.0414909 16.3365
129 4 O 6.68933 -0.682569 15.1974
130 1 H 7.84458 -0.924487 -0.749307
131 1 H 6.69065 17.2044 17.2339
132 1 H 8.35499 17.2557 16.7704
133 1 H 8.01061 0.691712 16.0524
134 1 H 6.41986 0.649204 16.8453
135 1 H 6.86266 -0.172066 14.4133
136 2 C 6.95278 9.77928 3.53219
137 2 C 7.95756 10.8758 3.91476
138 4 O 9.03799 10.9161 3.01131
139 1 H 7.44383 8.78532 3.65064
140 1 H 6.17427 9.70868 4.31622
141 1 H 6.45879 9.90286 2.59841
142 1 H 8.33721 10.579 4.86719
143 1 H 7.5119 11.8376 4.03326
144 1 H 8.60387 11.2712 2.22492
145 2 C 8.89332 17.4284 2.93779
146 2 C 9.45337 -0.386801 3.80821
147 4 O 10.409 -0.972029 4.68919
148 1 H 8.36666 17.7438 2.03682
149 1 H 9.70802 16.7777 2.73418
150 1 H 8.1272 16.8683 3.53974
151 1 H 8.71555 0.104457 4.36196
152 1 H 9.87409 0.386867 3.17615
153 1 H 10.8726 17.1614 4.46943
154 2 C 0.0931848 0.905464 15.8573
155 2 C 0.656911 2.27219 15.7746
156 4 O 0.566327 2.74151 14.4145
157 1 H 0.420693 0.239535 15.0499
158 1 H 0.344743 0.347477 16.7546
159 1 H -0.983757 0.959506 15.7357
160 1 H 1.68255 2.31168 16.1189
161 1 H 0.08799 2.91705 16.4488
162 1 H 0.751372 3.69491 14.4747
163 2 C 17.4561 11.1865 5.1128
164 2 C -0.387673 10.2709 4.95914
165 4 O -0.128585 9.73562 3.62774
166 1 H 16.4719 10.6967 5.21599
167 1 H 17.5793 11.7003 6.07057
168 1 H 17.3823 11.9521 4.32559
169 1 H -0.475305 9.4889 5.70048
170 1 H 0.526896 10.7651 5.30387
171 1 H -0.812538 9.08553 3.43173
172 2 C 12.0719 8.93967 17.7492
173 2 C 11.4455 7.64901 17.2591
174 4 O 10.8589 6.98739 -0.607492
175 1 H 11.6674 9.2435 -0.237067
176 1 H 13.1021 8.71796 -0.973355
177 1 H 11.9454 9.81859 17.1144
178 1 H 12.2257 7.01615 16.8017
179 1 H 10.6652 7.80639 16.5275
180 1 H 10.6687 6.07551 -0.825668
181 2 C 2.36462 0.306628 6.37864
182 2 C 2.10967 1.68097 7.03911
183 4 O 1.02539 1.81407 8.04354
184 1 H 1.51481 0.0249331 5.74609
185 1 H 3.19099 0.338508 5.6281
186 1 H 2.54724 -0.500515 7.08402
187 1 H 1.99311 2.53642 6.34984
188 1 H 2.98736 1.97226 7.61515
189 1 H 0.221758 1.46625 7.64043
190 2 C 6.81309 -0.282955 9.65427
191 2 C 6.72442 -0.954239 11.0183
192 4 O 7.9473 17.3324 11.3251
193 1 H 5.88312 0.246999 9.33227
194 1 H 7.56151 0.493392 9.69481
195 1 H 7.06843 17.8965 8.96863
196 1 H 5.8586 17.3736 11.1073
197 1 H 6.56715 -0.209823 11.8296
198 1 H 8.67694 17.8474 10.9815
199 2 C 11.4491 14.9693 12.3265
200 2 C 11.8089 13.5328 12.5979
201 4 O 11.0931 12.5566 11.7891
202 1 H 12.1485 15.5078 13.018
203 1 H 11.6153 15.1854 11.2998
204 1 H 10.43 15.1972 12.675
205 1 H 11.7602 13.3069 13.6857
206 1 H 12.838 13.3759 12.3847
207 1 H 10.1432 12.6553 12.0103
208 2 C 3.20444 9.98879 1.09872
209 2 C 2.65513 11.274 1.67208
210 4 O 2.49073 11.2069 3.09838
211 1 H 4.17192 9.68308 1.46239
212 1 H 2.50854 9.22247 1.43344
213 1 H 3.26302 9.91831 0.0181159
214 1 H 1.72766 11.6842 1.2916
215 1 H 3.36942 12.0676 1.54317
216 1 H 1.59474 10.8697 3.20904
217 2 C 16.0174 11.1644 14.4488
218 2 C 16.2602 9.72353 13.8594
219 4 O 16.137 8.80678 14.9478
220 1 H 14.9679 11.3636 14.7889
221 1 H 16.6755 11.2215 15.3468
222 1 H 16.3018 11.9622 13.8072
223 1 H 17.3167 9.60266 13.5093
224 1 H 15.5547 9.52128 13.0221
225 1 H 15.2035 8.69534 15.1416
226 2 C 15.2775 2.86472 8.90008
227 2 C 16.4503 1.9789 8.85492
228 4 O 17.1477 1.85377 7.57914
229 1 H 14.4536 2.48109 8.30612
230 1 H 14.8587 2.86343 9.9463
231 1 H 15.3853 3.94021 8.79374
232 1 H 16.2073 0.975455 9.13374
233 1 H 17.2026 2.29292 9.58351
234 1 H 16.5277 1.38482 6.99218
235 2 C 15.2173 17.4285 -0.035616
236 2 C 16.0651 17.2681 17.7639
237 4 O 17.3619 16.7607 -0.757313
238 1 H 15.1125 16.4787 0.54374
239 1 H 15.6539 -0.706628 0.557053
240 1 H 14.3021 17.8141 -0.339654
241 1 H 16.2989 -0.738879 17.3838
242 1 H 15.6347 16.7322 16.9457
243 1 H 0.468829 4.11617 8.60575
244 2 C 11.9035 13.9258 3.1978
245 2 C 12.7511 15.1228 3.46252
246 4 O 12.2585 16.007 4.47958
247 1 H 12.4918 13.4732 2.36872
248 1 H 11.4427 13.3377 3.94003
249 1 H 11.0762 14.392 2.58616
250 1 H 12.5583 15.6759 2.58032
251 1 H 13.9401 14.9611 3.56144
252 1 H 11.9952 15.5011 5.27031
253 2 C -0.896772 5.67813 17.7518
254 2 C 17.1453 5.8189 16.5706
255 4 O 17.7325 6.52956 15.4245
256 1 H -0.281894 6.55688 18.0399
257 1 H 17.5794 5.41416 -0.286652
258 1 H -0.139739 4.89739 17.5584
259 1 H 16.2236 6.38055 16.812
260 1 H 16.7611 4.85363 16.2531
261 1 H 17.1476 7.27809 15.1723
262 2 C 1.03607 17.8417 3.22026
263 2 C 1.88383 16.7793 3.82965
264 4 O 1.0294 15.9016 4.65176
265 1 H 0.445671 17.567 2.31642
266 1 H 0.310828 -0.779217 3.93094
267 1 H 1.69572 -0.314614 3.0421
268 1 H 2.62189 17.1487 4.54815
269 1 H 2.35357 16.1877 3.03555
270 1 H 1.4968 15.065 4.81972
271 2 C 11.5207 0.385002 15.8511
272 2 C 12.6751 0.987001 15.0276
273 4 O 13.9087 0.749832 15.6637
274 1 H 10.9882 1.12636 16.4057
275 1 H 10.7971 -0.166831 15.2458
276 1 H 11.8815 -0.233759 16.6345
277 1 H 12.4865 2.06177 14.9539
278 1 H 12.7324 0.590308 14.0201
279 1 H 13.9262 1.36821 16.4387
280 2 C 9.03432 2.09533 6.83919
281 2 C 9.76554 2.96685 7.79873
282 4 O 8.80523 3.96511 8.17903
283 1 H 8.67394 2.69876 6.01248
284 1 H 9.64802 1.29881 6.46838
285 1 H 8.21374 1.66154 7.37319
286 1 H 10.656 3.41315 7.36089
287 1 H 10.0695 2.4283 8.70296
288 1 H 9.03538 4.2273 9.0528
289 2 C 6.39259 5.55708 11.2811
290 2 C 7.63595 4.66446 11.253
291 4 O 8.79355 5.39125 11.6774
292 1 H 6.21061 6.11946 10.3866
293 1 H 5.48022 4.95677 11.4132
294 1 H 6.49818 6.24334 12.1462
295 1 H 7.81653 4.2207 10.2748
296 1 H 7.49503 3.83632 11.9799
297 1 H 8.90675 6.08751 11.0497
298 2 C 12.4803 11.0646 4.40095
299 2 C 12.1871 11.3712 5.83954
300 4 O 11.6724 10.2778 6.57899
301 1 H 12.902 11.9732 3.93169
302 1 H 13.1616 10.2342 4.30865
303 1 H 11.5454 10.8761 3.82655
304 1 H 11.5494 12.2469 5.93426
305 1 H 13.1125 11.6519 6.39312
306 1 H 10.8585 9.85174 6.25047
307 2 C 12.7963 7.93231 12.5257
308 2 C 12.7089 8.55015 13.8831
309 4 O 13.4958 8.04125 14.9303
310 1 H 12.5329 6.86896 12.5038
311 1 H 12.1816 8.43033 11.7276
312 1 H 13.7998 7.95419 12.1075
313 1 H 11.639 8.58434 14.1111
314 1 H 12.9706 9.58384 13.7555
315 1 H 13.5079 7.06919 14.9797
316 2 C 3.81124 11.7591 8.75108
317 2 C 5.20315 11.1229 8.58694
318 4 O 5.70924 10.7949 7.31352
319 1 H 3.81562 12.3011 9.70828
320 1 H 3.65542 12.4495 7.91078
321 1 H 2.97091 11.0939 8.79173
322 1 H 5.23971 10.19 9.16572
323 1 H 5.91115 11.7621 9.09397
324 1 H 5.95616 11.5807 6.82878
325 2 C 17.2729 -0.400734 11.3491
326 2 C 17.8185 0.278869 12.6207
327 4 O 17.9178 1.6935 12.38
328 1 H 17.9609 -0.0892749 10.5708
329 1 H 17.2175 17.4777 11.4283
330 1 H 16.2928 0.027042 11.1274
331 1 H -0.256577 -0.214236 12.9409
332 1 H 17.0066 0.147904 13.3504
333 1 H -0.567131 2.07596 13.1468
334 2 C 2.71772 6.64037 13.4104
335 2 C 2.50529 6.15453 14.8607
336 4 O 1.29009 5.37997 14.9785
337 1 H 3.62465 7.17069 13.2628
338 1 H 2.71792 5.71119 12.7919
339 1 H 1.84751 7.21129 13.1333
340 1 H 2.55448 6.95437 15.6126
341 1 H 3.27163 5.43129 15.0581
342 1 H 0.511258 5.95148 14.9938
343 2 C 4.54747 13.2902 13.7822
344 2 C 5.04064 14.1875 14.8916
345 4 O 5.65518 15.3157 14.2807
346 1 H 4.28855 12.2371 14.1116
347 1 H 3.83788 13.6424 13.1405
348 1 H 5.42501 13.1671 13.1969
349 1 H 5.76738 13.6701 15.5821
350 1 H 4.21752 14.5029 15.5401
351 1 H 5.90302 16.0196 14.8799
352 2 C 5.71688 2.10101 13.8914
353 2 C 4.93681 3.372 14.1633
354 4 O 5.83666 4.43079 14.0142
355 1 H 6.65911 2.10208 14.4528
356 1 H 5.23069 1.17448 14.198
357 1 H 6.02878 2.01338 12.8602
358 1 H 4.43351 3.40701 15.1631
359 1 H 4.09108 3.45226 13.4525
360 1 H 5.34874 5.22311 13.7409
361 2 C 14.9864 16.6553 8.27513
362 2 C 14.0947 16.8353 9.49886
363 4 O 12.7281 16.4753 9.32224
364 1 H 14.9377 17.4888 7.57719
365 1 H 16.014 16.5977 8.59785
366 1 H 14.6745 15.7268 7.79904
367 1 H 14.1539 17.8611 9.86491
368 1 H 14.4265 16.2001 10.3494
369 1 H 12.4503 17.0923 8.64219
370 2 C 12.4365 5.55975 7.95051
371 2 C 12.7526 6.6627 7.03905
372 4 O 12.8787 7.87967 7.84198
373 1 H 11.6388 5.87142 8.63619
374 1 H 12.1378 4.70404 7.32218
375 1 H 13.2831 5.32152 8.56726
376 1 H 11.9947 6.84365 6.2946
377 1 H 13.6625 6.55003 6.41389
378 1 H 12.6366 8.67737 7.3462
379 2 C 0.493839 6.3301 5.47444
380 2 C -0.64299 5.80613 4.54586
381 4 O 17.2584 6.73313 4.45336
382 1 H 0.526085 5.98265 6.49796
383 1 H 1.44456 6.14551 4.97708
384 1 H 0.264546 7.40445 5.47941
385 1 H -0.969729 4.78631 4.84174
386 1 H -0.246929 5.79892 3.54597
387 1 H 16.8679 6.71815 5.32721
388 2 C 16.7549 14.8932 12.4948
389 2 C 16.5407 14.3508 11.0852
390 4 O 17.1401 13.0947 11.085
391 1 H 17.8433 14.8306 12.6868
392 1 H 16.4326 15.9281 12.6567
393 1 H 16.2758 14.1721 13.1633
394 1 H 17.0474 15.0055 10.4029
395 1 H 15.4886 14.3283 10.7821
396 1 H 17.16 12.7456 10.1649
397 2 C -0.229896 10.8451 9.02027
398 2 C -0.595356 10.5169 10.5242
399 4 O -0.166907 9.24519 10.8908
400 1 H -0.207056 9.92784 8.43145
401 1 H -0.932605 11.4862 8.44129
402 1 H 0.758436 11.3056 9.05
403 1 H 17.2807 10.5502 10.5605
404 1 H -0.230493 11.2953 11.2099
405 1 H 0.0482978 9.18114 11.8511
406 2 C -0.0379425 12.2078 16.9138
407 2 C 0.596314 10.9167 16.8237
408 4 O -0.17581 9.93946 16.0508
409 1 H -0.411255 12.5216 15.8994
410 1 H -0.834071 12.17 17.6555
411 1 H 0.739337 12.9323 17.3035
412 1 H 0.749572 10.5122 17.8094
413 1 H 1.54701 10.849 16.3525
414 1 H 17.857 9.99624 16.2642
415 2 C 8.77214 6.67651 5.04073
416 2 C 9.04417 7.62653 6.19963
417 4 O 9.51437 8.89484 5.6587
418 1 H 9.66138 6.35668 4.53143
419 1 H 8.24277 5.81427 5.38447
420 1 H 8.18572 7.1172 4.26175
421 1 H 9.84279 7.28071 6.84358
422 1 H 8.13081 7.68757 6.77633
423 1 H 9.94905 8.68628 4.8147
424 2 C 5.72876 13.8374 2.72158
425 2 C 4.38965 14.3211 3.31556
426 4 O 3.90378 13.6428 4.49823
427 1 H 5.89763 12.7295 2.85831
428 1 H 5.75975 14.1174 1.65945
429 1 H 6.58808 14.1865 3.26953
430 1 H 3.59649 14.2963 2.56038
431 1 H 4.42261 15.3132 3.60636
432 1 H 3.63402 12.7954 4.11287
433 2 C 0.128585 5.26423 11.6453
434 2 C -0.230486 4.33878 10.53
435 4 O 0.355567 4.81263 9.27835
436 1 H -0.395874 6.17787 11.6272
437 1 H -0.224254 4.7406 12.5418
438 1 H 1.12022 5.49352 11.8496
439 1 H 17.6818 4.42473 10.3252
440 1 H 0.201756 3.34745 10.6927
441 1 H 1.0432 5.51764 9.34401
442 2 C 13.5282 2.66297 0.0716869
443 2 C 13.6093 3.80013 -0.836586
444 4 O 12.8519 3.48083 16.9758
445 1 H 13.8848 1.71486 -0.343816
446 1 H 13.9674 2.78882 1.06155
447 1 H 12.4508 2.48138 0.282835
448 1 H 14.6252 4.05437 17.8209
449 1 H 13.2495 4.70813 -0.370559
450 1 H 13.056 4.07787 16.296
ITEM: TIMESTEP
7100
ITEM: NUMBER OF ATOMS
450
ITEM: BOX BOUNDS pp pp pp
-1.0501842099444616e+00 1.7975184209944491e+01
-1.0501842099444616e+00 1.7975184209944491e+01
-1.0501842099444616e+00 1.7975184209944491e+01
ITEM: ATOMS id type element x y z
1 2 C 12.4996 7.3445 3.86025
2 2 C 11.5879 7.74112 2.59236
3 4 O 10.2545 8.09108 2.86647
4 1 H 13.5536 7.52425 3.57333
5 1 H 12.3094 7.91703 4.76198
6 1 H 12.3982 6.27231 4.12577
7 1 H 11.7067 6.92642 1.87931
8 1 H 12.062 8.60537 2.12557
9 1 H 10.0215 8.90666 2.38216
10 2 C 14.0879 13.6507 16.7236
11 2 C 14.4099 12.8421 17.9737
12 4 O 15.8238 12.9536 -0.735902
13 1 H 14.935 13.8453 16.0308
14 1 H 13.3248 13.1978 16.0547
15 1 H 13.6498 14.5846 17.0016
16 1 H 14.1327 11.8181 17.8744
17 1 H 13.9169 13.2805 -0.146119
18 1 H 16.1709 12.0547 -0.739516
19 2 C 13.4357 0.137542 3.69322
20 2 C 12.9153 1.06962 4.82517
21 4 O 13.1881 0.600956 6.20186
22 1 H 12.9879 -0.856583 3.75689
23 1 H 13.1696 0.629025 2.74573
24 1 H 14.5415 0.0809257 3.86016
25 1 H 11.8424 1.20887 4.74159
26 1 H 13.4317 2.00541 4.69291
27 1 H 13.1147 -0.334483 6.26154
28 2 C 16.1938 7.58718 8.88406
29 2 C 16.9727 7.17895 7.70048
30 4 O 16.549 5.87665 7.25986
31 1 H 16.3171 6.98688 9.79415
32 1 H 16.3838 8.63292 9.18254
33 1 H 15.1302 7.43972 8.6696
34 1 H -0.969361 7.07208 7.83668
35 1 H 16.9114 7.84147 6.84594
36 1 H 15.5857 5.93209 7.29108
37 2 C 2.7996 1.53233 10.6026
38 2 C 2.93968 2.97882 10.9466
39 4 O 3.80678 3.67288 10.4598
40 1 H 1.73946 1.27692 10.3611
41 1 H 3.43789 1.27157 9.78031
42 1 H 3.10333 0.929309 11.4316
43 1 H 2.13277 3.41138 11.6975
44 1 H 17.2132 16.0376 18.1962
45 1 H 8.03365 6.55342 9.17153
46 2 C 8.94442 13.481 6.51377
47 2 C 9.63207 14.7993 6.88712
48 4 O 11.0317 14.6402 6.77415
49 1 H 7.90045 13.4555 6.86229
50 1 H 9.0082 13.317 5.44584
51 1 H 9.42282 12.6687 7.07078
52 1 H 9.35198 15.0247 7.91163
53 1 H 9.28859 15.6017 6.22287
54 1 H 11.4345 14.9998 7.56301
55 2 C 14.7071 3.75925 13.5327
56 2 C 14.6639 5.20181 13.9186
57 4 O 13.5301 5.51887 14.738
58 1 H 13.8103 3.4497 12.9687
59 1 H 15.4806 3.44961 12.8709
60 1 H 14.8243 3.11668 14.4855
61 1 H 14.9158 6.01927 13.198
62 1 H 15.4349 5.29599 14.6778
63 1 H 12.7171 5.3889 14.2778
64 2 C 9.17873 9.05894 10.9465
65 2 C 9.69279 8.69862 9.58037
66 4 O 10.1984 7.36013 9.59491
67 1 H 9.97685 8.96501 11.6633
68 1 H 8.93127 10.1291 10.9758
69 1 H 8.27817 8.54931 11.2764
70 1 H 10.5383 9.34425 9.34468
71 1 H 8.92058 8.79407 8.79579
72 1 H 11.0913 7.41454 9.1771
73 2 C 4.90407 3.51227 6.58271
74 2 C 5.9747 4.49432 6.25335
75 4 O 6.54616 4.9671 7.5177
76 1 H 4.51689 3.93931 7.4846
77 1 H 4.20133 3.43501 5.74893
78 1 H 5.26434 2.49518 6.82803
79 1 H 5.50928 5.33226 5.75817
80 1 H 6.75936 4.04762 5.62793
81 1 H 6.97415 4.20842 7.95029
82 2 C 2.81102 10.093 11.9359
83 2 C 2.17041 10.234 13.2685
84 4 O 0.77097 9.78595 13.3243
85 1 H 2.841 9.08292 11.6532
86 1 H 2.20612 10.5865 11.24
87 1 H 3.84827 10.5425 11.9559
88 1 H 2.17843 11.2647 13.5841
89 1 H 2.59447 9.56867 14.0138
90 1 H 0.485724 9.58349 14.218
91 2 C 8.92769 3.71346 14.8116
92 2 C 9.70825 4.84827 14.6236
93 4 O 10.6202 4.87498 13.5844
94 1 H 8.37038 3.91382 15.6868
95 1 H 8.23887 3.32412 14.0968
96 1 H 9.63067 2.87352 14.9366
97 1 H 10.3031 5.02351 15.4615
98 1 H 9.08009 5.75982 14.4929
99 1 H 10.2049 5.08211 12.7546
100 2 C 8.246 13.7831 10.2127
101 2 C 8.0438 13.7274 11.7494
102 4 O 8.11261 12.3526 12.2522
103 1 H 7.59595 13.1081 9.62934
104 1 H 8.06341 14.841 9.96039
105 1 H 9.29562 13.5308 10.0901
106 1 H 7.10281 14.2055 12.0567
107 1 H 8.84179 14.1986 12.2581
108 1 H 7.6104 11.7958 11.6674
109 2 C 3.93087 15.3913 7.51102
110 2 C 5.358 14.9559 7.24093
111 4 O 5.50899 13.6061 6.80058
112 1 H 3.41187 15.5495 6.54304
113 1 H 3.34664 14.6567 8.07825
114 1 H 4.00901 16.2607 8.12974
115 1 H 5.83784 14.9092 8.19603
116 1 H 5.90606 15.6762 6.61574
117 1 H 4.92821 13.5119 6.01351
118 2 C 3.50205 6.73864 7.80477
119 2 C 2.54293 7.74845 8.34697
120 4 O 2.10315 7.39632 9.679
121 1 H 3.22262 5.75424 8.17997
122 1 H 3.49735 6.82945 6.74193
123 1 H 4.51946 6.95664 8.11904
124 1 H 1.70705 7.91637 7.67013
125 1 H 3.07389 8.69038 8.33127
126 1 H 1.25519 7.84193 9.79793
127 2 C 7.4947 17.8922 17.5377
128 2 C 7.34537 -0.134688 16.4063
129 4 O 6.87958 -0.748905 15.2023
130 1 H 7.92183 -0.667525 -0.632371
131 1 H 6.51517 17.3926 17.7771
132 1 H 8.23851 17.1175 17.277
133 1 H 8.2679 0.383146 16.1847
134 1 H 6.65844 0.667041 16.7424
135 1 H 6.16271 -0.192845 14.8887
136 2 C 7.00516 9.64395 3.75114
137 2 C 7.97351 10.7455 3.99514
138 4 O 8.86333 10.8977 2.87956
139 1 H 7.58028 8.8542 3.28335
140 1 H 6.4597 9.25749 4.62173
141 1 H 6.29717 9.90278 2.93795
142 1 H 8.56068 10.5064 4.8718
143 1 H 7.49268 11.7348 4.20583
144 1 H 8.42859 11.4485 2.22244
145 2 C 8.4604 17.6339 3.0313
146 2 C 9.59086 -0.501884 3.70744
147 4 O 10.3766 -1.01294 4.76098
148 1 H 7.52118 -0.801757 2.91517
149 1 H 8.82266 17.1726 2.09035
150 1 H 8.16997 16.9397 3.76533
151 1 H 9.01736 0.338964 4.20037
152 1 H 10.2247 -0.102539 2.88314
153 1 H 11.1268 17.4338 4.57291
154 2 C -0.0338344 0.778695 15.9703
155 2 C 0.529805 2.19533 15.9619
156 4 O 0.592732 2.65792 14.6347
157 1 H 0.634102 -0.00893696 15.6363
158 1 H -0.29057 0.41178 16.9529
159 1 H -0.93321 0.752975 15.3498
160 1 H 1.5103 2.27977 16.4642
161 1 H -0.154579 2.83822 16.5293
162 1 H 0.65537 3.61954 14.6151
163 2 C 17.6496 11.1311 5.35838
164 2 C -0.0515231 10.4544 4.83429
165 4 O -0.381935 9.83339 3.60544
166 1 H 16.8849 10.3881 5.569
167 1 H 17.756 11.7378 6.26972
168 1 H 17.1834 11.7908 4.634
169 1 H 0.296883 9.71014 5.57264
170 1 H 0.697997 11.2289 4.61408
171 1 H -0.834266 9.00334 3.80273
172 2 C 11.9403 8.94129 17.5919
173 2 C 11.5243 7.55291 17.1678
174 4 O 11.0214 6.8038 -0.698396
175 1 H 11.0667 9.4434 -1.10797
176 1 H 12.7771 9.01568 18.3136
177 1 H 12.3384 9.51485 16.7172
178 1 H 12.3427 7.00955 16.7728
179 1 H 10.7163 7.5476 16.3908
180 1 H 10.8733 5.88621 -0.840686
181 2 C 2.48022 0.708263 6.4697
182 2 C 1.92732 2.00781 7.05037
183 4 O 0.919833 1.69893 8.03553
184 1 H 1.81774 0.270986 5.74422
185 1 H 3.41023 0.825421 5.93851
186 1 H 2.48748 -0.0647675 7.22755
187 1 H 1.64177 2.79784 6.36139
188 1 H 2.63643 2.42614 7.75086
189 1 H 0.0869725 1.44664 7.60239
190 2 C 6.55315 -0.319616 9.80691
191 2 C 6.66927 -0.968854 11.1635
192 4 O 7.79173 17.2097 11.3033
193 1 H 5.54616 0.0524837 9.71272
194 1 H 7.24516 0.53449 9.67784
195 1 H 6.72879 -1.06801 9.02754
196 1 H 5.75707 17.4381 11.3287
197 1 H 6.69797 -0.248713 11.9541
198 1 H 8.49594 17.6297 11.8005
199 2 C 11.694 14.7275 12.6082
200 2 C 12.035 13.2515 12.8478
201 4 O 11.313 12.3934 11.9533
202 1 H 12.1189 15.3028 13.392
203 1 H 11.9372 14.9933 11.5742
204 1 H 10.6046 14.7437 12.6685
205 1 H 11.8522 12.9899 13.8909
206 1 H 13.0931 13.0195 12.6462
207 1 H 10.3489 12.5047 12.0879
208 2 C 2.99277 10.0047 1.09588
209 2 C 2.78092 11.4617 1.51863
210 4 O 2.26975 11.5526 2.88542
211 1 H 3.62825 9.42627 1.77365
212 1 H 2.0715 9.46484 0.86489
213 1 H 3.59279 9.99747 0.157157
214 1 H 2.09146 12.0662 0.938452
215 1 H 3.79181 11.9071 1.50541
216 1 H 1.57261 10.8925 2.88851
217 2 C 15.4767 11.1217 14.0663
218 2 C 16.1882 9.80252 13.979
219 4 O 16.2397 8.94632 15.1352
220 1 H 14.5004 11.026 14.5375
221 1 H 15.9712 11.7832 14.7719
222 1 H 15.4888 11.6604 13.0896
223 1 H 17.1864 10.0234 13.8144
224 1 H 15.8103 9.28449 13.0998
225 1 H 15.3462 8.88772 15.5309
226 2 C 15.4911 2.9717 8.88337
227 2 C 16.371 1.7937 8.85276
228 4 O 17.1372 1.99845 7.66541
229 1 H 14.8134 3.04922 8.02814
230 1 H 14.9164 3.20859 9.767
231 1 H 16.1037 3.86191 8.86065
232 1 H 16.0441 0.75048 8.72229
233 1 H 17.0567 1.91873 9.64891
234 1 H 17.6885 2.78938 7.78276
235 2 C 15.1841 17.5402 0.151174
236 2 C 16.249 17.6233 18.0098
237 4 O 17.472 16.9851 -0.797003
238 1 H 15.0742 16.4942 0.444496
239 1 H 15.5482 -0.983168 1.06951
240 1 H 14.2678 18.0807 -0.160525
241 1 H 16.533 -0.421415 17.6736
242 1 H 15.8037 17.1665 17.0405
243 1 H 1.03529 3.92212 9.21821
244 2 C 11.936 14.0194 3.21262
245 2 C 12.8438 15.2028 3.50293
246 4 O 12.3314 15.9659 4.60531
247 1 H 12.1303 13.4912 2.273
248 1 H 11.7453 13.4619 4.18904
249 1 H 11.0465 14.5256 2.91874
250 1 H 12.7776 16.001 2.68885
251 1 H 13.8304 15.0451 3.71514
252 1 H 11.9111 15.3449 5.22024
253 2 C -1.0317 5.49552 17.4546
254 2 C 17.0458 5.89663 16.3954
255 4 O 17.6456 6.66525 15.3557
256 1 H -0.752454 6.20555 -0.786508
257 1 H 17.6918 4.58011 -1.08802
258 1 H -0.106445 5.18415 17.0213
259 1 H 16.2487 6.52319 16.8087
260 1 H 16.5365 4.97964 16.0761
261 1 H 16.9502 7.17113 14.9153
262 2 C 1.16634 17.9213 3.43083
263 2 C 2.03369 16.7898 3.88997
264 4 O 1.23046 15.7012 4.3839
265 1 H 0.369944 17.691 2.72732
266 1 H 0.797641 -0.464423 4.25986
267 1 H 1.87051 -0.400014 2.96028
268 1 H 2.68031 17.0765 4.70072
269 1 H 2.67539 16.4904 3.04166
270 1 H 1.85592 14.9931 4.71709
271 2 C 11.3885 0.367032 15.9055
272 2 C 12.5988 0.965023 15.2566
273 4 O 13.8222 0.67202 15.9756
274 1 H 11.3795 0.619322 16.9953
275 1 H 10.5051 0.797441 15.39
276 1 H 11.3435 -0.752405 15.7992
277 1 H 12.4774 2.05386 15.2058
278 1 H 12.7496 0.583946 14.2312
279 1 H 13.8335 1.33641 16.6209
280 2 C 9.22863 1.84862 6.55983
281 2 C 9.80036 2.68225 7.71018
282 4 O 9.01314 3.81336 8.14017
283 1 H 9.25667 2.48068 5.66102
284 1 H 9.93643 1.0323 6.34938
285 1 H 8.20487 1.44799 6.6899
286 1 H 10.8302 3.00571 7.39228
287 1 H 9.92797 2.12104 8.62519
288 1 H 9.51441 4.63542 8.15845
289 2 C 6.2846 5.61073 11.1598
290 2 C 7.59125 4.7831 11.3175
291 4 O 8.84769 5.39665 11.5131
292 1 H 6.4682 6.59557 10.7348
293 1 H 5.68908 5.1123 10.4098
294 1 H 5.75692 5.76157 12.0992
295 1 H 7.70967 4.20902 10.396
296 1 H 7.50142 4.16665 12.1601
297 1 H 9.04627 6.07193 10.8465
298 2 C 12.5324 10.8732 4.81479
299 2 C 12.5538 11.0292 6.30035
300 4 O 11.6916 10.0131 6.8772
301 1 H 13.3584 11.3924 4.37457
302 1 H 12.4914 9.85738 4.52248
303 1 H 11.7007 11.4088 4.3787
304 1 H 12.1556 12.0055 6.61564
305 1 H 13.509 10.9288 6.81566
306 1 H 10.9748 9.70864 6.27555
307 2 C 12.6756 8.07976 12.704
308 2 C 12.499 8.84039 14.0516
309 4 O 13.5274 8.4466 14.9261
310 1 H 12.6842 7.00312 12.7638
311 1 H 11.9313 8.24414 11.9541
312 1 H 13.6245 8.34173 12.2598
313 1 H 11.4775 8.72746 14.4555
314 1 H 12.6609 9.9026 13.7798
315 1 H 13.4984 7.48527 15.0312
316 2 C 3.82325 11.7099 8.71679
317 2 C 5.2142 11.0826 8.71857
318 4 O 5.65564 10.6714 7.41263
319 1 H 3.46611 11.7749 9.74682
320 1 H 3.88056 12.7075 8.30983
321 1 H 3.14129 11.1199 8.08102
322 1 H 5.25468 10.2375 9.35848
323 1 H 5.9478 11.8291 9.11782
324 1 H 5.87502 11.4941 6.96189
325 2 C 17.2357 -0.268657 11.3167
326 2 C 17.7369 0.313879 12.6121
327 4 O -0.999507 1.68611 12.3882
328 1 H 17.9941 -0.0275602 10.6107
329 1 H 17.25 17.7188 11.5397
330 1 H 16.2528 0.0570316 10.9749
331 1 H -0.410319 -0.285512 12.8628
332 1 H 17.0011 0.13672 13.4119
333 1 H -0.53571 2.02798 13.1407
334 2 C 2.96068 6.57203 13.4004
335 2 C 2.48362 6.18895 14.8091
336 4 O 1.17908 5.64135 14.8578
337 1 H 3.94535 7.04337 13.5628
338 1 H 3.03756 5.62969 12.8721
339 1 H 2.36421 7.27262 12.8405
340 1 H 2.61358 6.96869 15.5504
341 1 H 3.16283 5.40682 15.1141
342 1 H 0.49116 6.34132 14.9633
343 2 C 4.39669 13.4823 13.5871
344 2 C 5.01635 14.2557 14.7261
345 4 O 5.76512 15.287 14.1728
346 1 H 3.98374 12.5207 13.9558
347 1 H 3.59995 14.1688 13.0183
348 1 H 5.15739 13.1404 12.863
349 1 H 5.60562 13.6469 15.393
350 1 H 4.1778 14.6507 15.3258
351 1 H 6.04467 15.9923 14.7665
352 2 C 5.32245 2.09256 13.9557
353 2 C 4.70229 3.4385 14.1458
354 4 O 5.75337 4.38455 14.3073
355 1 H 5.99618 1.81792 14.7686
356 1 H 4.51297 1.36873 13.9152
357 1 H 5.94994 2.01261 13.0629
358 1 H 4.03984 3.44094 14.9855
359 1 H 4.02895 3.64873 13.3342
360 1 H 5.37148 5.26959 14.4434
361 2 C 15.0587 16.6204 8.29183
362 2 C 14.185 16.9595 9.4859
363 4 O 12.8134 17.1154 9.19513
364 1 H 14.9691 17.4619 7.58502
365 1 H 16.1093 16.5579 8.55647
366 1 H 14.7118 15.6789 7.85084
367 1 H 14.569 17.843 9.97788
368 1 H 14.1703 16.0845 10.1404
369 1 H 12.6581 18.0091 8.84897
370 2 C 12.7089 5.353 7.99983
371 2 C 12.6968 6.58997 7.04214
372 4 O 12.7819 7.78295 7.84079
373 1 H 11.6728 5.25564 8.36652
374 1 H 12.9442 4.43469 7.43434
375 1 H 13.4352 5.43361 8.8135
376 1 H 11.7124 6.6261 6.54762
377 1 H 13.4332 6.62416 6.26794
378 1 H 12.4619 8.57756 7.37793
379 2 C 0.640506 6.20848 4.99209
380 2 C -0.76046 5.74314 4.55181
381 4 O 17.2233 6.64007 4.81805
382 1 H 0.553817 6.86401 5.86644
383 1 H 1.27202 5.36504 5.18416
384 1 H 1.07189 6.72612 4.12965
385 1 H -0.945472 4.79401 5.02214
386 1 H -0.785142 5.55195 3.47721
387 1 H 17.0345 6.46294 5.74508
388 2 C 16.6381 15.0383 12.5825
389 2 C 16.5377 14.4534 11.1737
390 4 O 17.468 13.4131 10.9249
391 1 H 17.6089 15.4995 12.7166
392 1 H 15.822 15.7392 12.6861
393 1 H 16.5578 14.2855 13.3766
394 1 H 16.8066 15.3112 10.5043
395 1 H 15.521 14.1558 10.936
396 1 H 17.1939 12.8663 10.1559
397 2 C -0.774335 10.5365 8.85951
398 2 C -0.914923 10.1761 10.305
399 4 O -0.00795442 9.12726 10.6158
400 1 H -1.03796 9.67788 8.20194
401 1 H 17.6501 11.4095 8.66581
402 1 H 0.297701 10.7427 8.68649
403 1 H 17.0717 9.9215 10.4378
404 1 H -0.770057 11.0446 10.8784
405 1 H 0.177213 9.19379 11.5515
406 2 C 0.0348431 12.3868 17.0512
407 2 C 0.506298 10.9212 16.7007
408 4 O -0.314297 10.1676 15.8602
409 1 H 0.214524 13.0656 16.2952
410 1 H -0.938035 12.3811 17.4886
411 1 H 0.75494 12.7035 17.795
412 1 H 0.695481 10.3915 17.6609
413 1 H 1.48498 10.8006 16.1959
414 1 H 17.8234 9.96871 16.174
415 2 C 8.72843 6.48517 5.21796
416 2 C 9.23834 7.66526 6.05285
417 4 O 9.81241 8.72385 5.35419
418 1 H 9.5811 6.11833 4.59462
419 1 H 8.42917 5.63555 5.82143
420 1 H 7.95659 6.74034 4.48176
421 1 H 9.92179 7.40248 6.85949
422 1 H 8.33186 7.98212 6.5767
423 1 H 9.89498 8.46901 4.40212
424 2 C 5.75151 13.7475 2.93513
425 2 C 4.35286 14.2016 3.14913
426 4 O 3.71956 13.6375 4.34782
427 1 H 5.81889 12.6875 2.96363
428 1 H 6.12574 13.9985 1.9339
429 1 H 6.48112 14.1369 3.64758
430 1 H 3.71323 14.1006 2.3004
431 1 H 4.32207 15.2907 3.40318
432 1 H 3.17105 12.9147 3.99731
433 2 C -0.0549519 5.29069 11.6716
434 2 C -0.387871 4.36604 10.5103
435 4 O 0.440192 4.67142 9.38767
436 1 H -0.0488044 6.43103 11.4392
437 1 H -0.788924 5.32057 12.4884
438 1 H 0.847849 5.06509 12.2132
439 1 H 17.5646 4.34343 10.1621
440 1 H -0.261473 3.30908 10.7569
441 1 H 1.00394 5.49612 9.46193
442 2 C 13.3028 2.57236 -0.0904587
443 2 C 13.5742 3.91886 -0.845293
444 4 O 12.8651 3.77883 16.9748
445 1 H 13.9354 1.77648 -0.450226
446 1 H 13.4647 2.59502 0.9593
447 1 H 12.2752 2.25384 -0.163455
448 1 H 14.6546 3.96923 17.9658
449 1 H 13.2917 4.79727 -0.227379
450 1 H 13.211 4.44061 16.2941
ITEM: TIMESTEP
7200
ITEM: NUMBER OF ATOMS
450
ITEM: BOX BOUNDS pp pp pp
-1.0632318781639682e+00 1.7988231878163987e+01
-1.0632318781639682e+00 1.7988231878163987e+01
-1.0632318781639682e+00 1.7988231878163987e+01
ITEM: ATOMS id type element x y z
1 2 C 12.2717 6.99167 3.38833
2 2 C 11.8496 7.74026 2.22008
3 4 O 10.4354 8.04147 2.5283
4 1 H 13.1836 6.37384 3.28606
5 1 H 12.4038 7.75429 4.15154
6 1 H 11.4925 6.31348 3.68343
7 1 H 11.9227 7.13155 1.32134
8 1 H 12.4058 8.69174 2.16396
9 1 H 10.1097 8.80798 2.04489
10 2 C 14.1873 13.4346 16.7198
11 2 C 14.46 12.8458 -0.967542
12 4 O 15.8417 12.9354 -0.629961
13 1 H 14.5121 12.8215 15.8984
14 1 H 13.1305 13.6656 16.5889
15 1 H 14.711 14.4008 16.6019
16 1 H 14.0457 11.8101 -0.892469
17 1 H 13.9333 13.4211 -0.201187
18 1 H 16.2762 12.1752 -1.03292
19 2 C 13.4001 0.522977 3.92849
20 2 C 12.9507 1.20774 5.19252
21 4 O 13.0482 0.296288 6.23806
22 1 H 12.6306 -0.164866 3.68802
23 1 H 13.438 1.26587 3.14195
24 1 H 14.385 0.0616756 4.0811
25 1 H 11.9372 1.61254 5.14562
26 1 H 13.6356 2.03604 5.393
27 1 H 12.3947 -0.426515 6.17577
28 2 C 15.7544 7.52711 8.96386
29 2 C 16.8913 7.10346 8.07091
30 4 O 16.6849 5.82741 7.39067
31 1 H 15.6324 6.94702 9.87648
32 1 H 15.909 8.58465 9.26313
33 1 H 14.8142 7.52185 8.40294
34 1 H 17.818 7.03709 8.63015
35 1 H 17.0398 7.75627 7.22288
36 1 H 16.0282 5.33946 7.90249
37 2 C 2.79421 1.40159 10.8621
38 2 C 3.13134 2.84691 10.9146
39 4 O 3.77436 3.60894 10.2499
40 1 H 1.77157 1.42657 10.5481
41 1 H 3.36284 0.749701 10.2152
42 1 H 2.78221 1.06708 11.9345
43 1 H 2.5021 3.20367 11.7146
44 1 H 17.2989 16.4138 -0.223694
45 1 H 8.13812 6.10353 8.47655
46 2 C 9.43283 13.4129 6.68386
47 2 C 9.92408 14.8552 6.84843
48 4 O 11.3754 14.9736 6.9546
49 1 H 8.38892 13.2529 6.40276
50 1 H 10.0214 13.0687 5.82076
51 1 H 9.75531 12.8212 7.5377
52 1 H 9.49108 15.3531 7.72869
53 1 H 9.61859 15.4764 5.99921
54 1 H 11.5568 15.2916 7.84204
55 2 C 14.7989 3.84208 13.2913
56 2 C 14.7177 5.33559 13.5578
57 4 O 13.559 5.61625 14.3828
58 1 H 14.3784 3.57542 12.3283
59 1 H 15.8744 3.52847 13.0899
60 1 H 14.2622 3.25304 13.9545
61 1 H 14.5828 5.87813 12.6388
62 1 H 15.6109 5.77991 14.0204
63 1 H 12.7782 5.60517 13.7715
64 2 C 8.94041 8.97188 10.7122
65 2 C 9.88545 8.67607 9.53274
66 4 O 9.96106 7.23111 9.32922
67 1 H 9.08233 8.27489 11.5253
68 1 H 9.1107 9.98305 11.1568
69 1 H 7.90248 8.96758 10.4301
70 1 H 10.9133 9.02259 9.7235
71 1 H 9.61264 9.15507 8.61471
72 1 H 10.8673 6.99782 9.39305
73 2 C 4.94013 3.44095 6.62949
74 2 C 6.13376 4.32173 6.23275
75 4 O 6.9266 4.72319 7.28163
76 1 H 4.28173 3.96222 7.31606
77 1 H 4.37759 3.17334 5.71336
78 1 H 5.37245 2.54727 7.07612
79 1 H 5.74002 5.26295 5.83641
80 1 H 6.71453 3.85455 5.4266
81 1 H 7.28505 4.01479 7.80193
82 2 C 2.9828 10.2193 12.156
83 2 C 2.16684 9.96734 13.4187
84 4 O 0.818212 9.96226 13.003
85 1 H 2.81258 9.43939 11.3496
86 1 H 2.74007 11.1845 11.703
87 1 H 4.00921 10.2752 12.4832
88 1 H 2.29539 10.8529 14.0556
89 1 H 2.32674 9.07486 14.0375
90 1 H 0.257226 9.88827 13.7928
91 2 C 9.03572 3.61989 14.927
92 2 C 9.29961 5.22535 14.606
93 4 O 10.4097 5.26057 13.6203
94 1 H 8.15339 3.51023 15.6036
95 1 H 8.76536 3.05411 13.9722
96 1 H 9.9087 3.15263 15.4562
97 1 H 9.81065 5.74919 15.4118
98 1 H 8.37842 5.68873 14.176
99 1 H 9.96356 5.40926 12.7572
100 2 C 8.17794 13.894 10.1852
101 2 C 7.99533 13.7479 11.6831
102 4 O 8.25239 12.4428 12.1883
103 1 H 7.38004 13.4035 9.65203
104 1 H 8.27297 14.9387 10.0401
105 1 H 9.11438 13.4213 9.96802
106 1 H 7.02642 14.1187 12.0258
107 1 H 8.74586 14.3211 12.2793
108 1 H 7.71924 11.7872 11.7401
109 2 C 3.90014 15.3251 7.43043
110 2 C 5.32937 14.7269 7.2399
111 4 O 5.41639 13.6635 6.29608
112 1 H 3.35903 15.5194 6.47381
113 1 H 3.23625 14.5814 7.88535
114 1 H 3.90007 16.276 7.98103
115 1 H 5.72674 14.329 8.21497
116 1 H 6.05732 15.4755 6.92317
117 1 H 4.7053 13.8386 5.67365
118 2 C 3.20187 6.42275 7.78026
119 2 C 2.29822 7.52953 8.35125
120 4 O 2.00989 7.23338 9.71903
121 1 H 2.63476 5.63863 7.25768
122 1 H 4.04824 6.80299 7.16375
123 1 H 3.66657 5.95284 8.66966
124 1 H 1.37423 7.67218 7.77826
125 1 H 2.82288 8.48476 8.24348
126 1 H 1.07069 7.39962 9.83542
127 2 C 7.48105 17.9735 17.793
128 2 C 7.46422 -0.303143 16.4848
129 4 O 7.02086 -1.0681 15.3484
130 1 H 8.01663 -0.438738 -0.553204
131 1 H 6.48204 17.7649 18.2165
132 1 H 8.02598 17.0561 17.6967
133 1 H 8.46019 0.0679236 16.2545
134 1 H 6.80516 0.557748 16.5929
135 1 H 6.96697 -0.445819 14.6048
136 2 C 7.01363 9.56225 3.99957
137 2 C 7.97439 10.7268 4.00436
138 4 O 8.64967 10.8719 2.71008
139 1 H 7.42951 8.61731 3.7665
140 1 H 6.46276 9.59326 4.91403
141 1 H 6.30954 9.72139 3.162
142 1 H 8.73565 10.6008 4.77972
143 1 H 7.39009 11.6488 4.17664
144 1 H 9.05541 11.7197 2.52319
145 2 C 8.30236 17.8137 3.29337
146 2 C 9.6051 -0.578244 3.62938
147 4 O 10.193 17.9521 4.82698
148 1 H 7.7315 -0.472966 2.78304
149 1 H 8.40078 17.0194 2.54652
150 1 H 7.77795 17.5195 4.20781
151 1 H 9.43561 0.506631 3.72452
152 1 H 10.264 -0.749324 2.80441
153 1 H 11.0557 17.5781 4.62369
154 2 C -0.10579 0.764884 16.0383
155 2 C 0.333243 2.20555 16.1057
156 4 O 0.613406 2.70301 14.7878
157 1 H 0.580403 0.191059 15.4069
158 1 H -0.0941692 0.306746 17.0394
159 1 H -1.12969 0.600616 15.6908
160 1 H 1.23482 2.24918 16.7052
161 1 H -0.449242 2.81128 16.5456
162 1 H 0.836514 3.65064 14.789
163 2 C 17.8045 11.0357 5.60612
164 2 C -0.048819 10.6318 4.83745
165 4 O -0.308139 9.882 3.64424
166 1 H 17.2705 10.1671 5.96249
167 1 H -1.04031 11.7023 6.43183
168 1 H 17.0948 11.5595 4.98394
169 1 H 0.576826 10.0347 5.48684
170 1 H 0.448095 11.5133 4.48845
171 1 H -0.674069 9.02103 3.86748
172 2 C 11.6295 8.83496 17.5796
173 2 C 11.6241 7.40826 17.2022
174 4 O 11.2076 6.59824 -0.789186
175 1 H 10.6243 9.16381 17.288
176 1 H 11.8969 9.00958 -0.444855
177 1 H 12.4378 9.33847 17.0568
178 1 H 12.679 7.11672 16.9229
179 1 H 11.0386 7.21462 16.3484
180 1 H 11.1192 5.69577 -1.07069
181 2 C 2.48047 1.09783 6.63655
182 2 C 1.79872 2.23722 7.24256
183 4 O 0.877214 1.88321 8.24442
184 1 H 1.98714 0.116641 6.50204
185 1 H 2.95105 1.46813 5.73845
186 1 H 3.3018 0.813686 7.35253
187 1 H 1.21674 2.70413 6.43761
188 1 H 2.52585 2.96349 7.63469
189 1 H -0.0107666 1.93904 7.84469
190 2 C 6.32633 -0.385537 9.99289
191 2 C 6.51366 17.9543 11.3339
192 4 O 7.72195 17.197 11.2538
193 1 H 5.67223 0.449925 10.1424
194 1 H 7.28769 -0.0880386 9.58515
195 1 H 5.8709 -1.00329 9.22043
196 1 H 5.68948 17.3018 11.4923
197 1 H 6.61918 -0.392127 12.184
198 1 H 7.6875 16.4226 11.8345
199 2 C 12.0579 14.4696 12.8996
200 2 C 12.1693 12.9025 13.0919
201 4 O 11.5028 12.1726 12.1076
202 1 H 12.916 14.9014 13.4045
203 1 H 12.1067 14.6381 11.7983
204 1 H 11.1115 14.8203 13.2566
205 1 H 11.6809 12.6566 14.0222
206 1 H 13.239 12.5869 13.1025
207 1 H 10.6094 12.1092 12.3874
208 2 C 2.74795 10.0699 1.06799
209 2 C 2.93038 11.4834 1.42961
210 4 O 2.14355 11.8871 2.5258
211 1 H 3.14868 9.42746 1.84781
212 1 H 1.69595 9.86638 0.930425
213 1 H 3.21817 9.83205 0.127355
214 1 H 2.68033 12.1609 0.608584
215 1 H 4.00323 11.5844 1.6484
216 1 H 1.31722 11.3964 2.61509
217 2 C 15.1287 11.0152 13.7691
218 2 C 16.1152 9.88532 13.9609
219 4 O 16.2474 9.59759 15.3415
220 1 H 14.1915 10.8364 14.2388
221 1 H 15.4622 11.9469 14.1678
222 1 H 15.087 11.2055 12.6898
223 1 H 17.0479 10.2072 13.4886
224 1 H 15.7689 9.03494 13.3719
225 1 H 15.6786 8.8475 15.5565
226 2 C 15.3858 3.06195 9.02193
227 2 C 16.3383 1.90282 8.62317
228 4 O 17.2577 2.22125 7.52187
229 1 H 14.9219 3.52506 8.12943
230 1 H 14.5526 2.74861 9.63793
231 1 H 15.7837 3.92934 9.55595
232 1 H 15.8674 0.948514 8.34698
233 1 H 17.0509 1.66519 9.43885
234 1 H 17.3026 3.17965 7.47742
235 2 C 15.2859 17.6411 0.24992
236 2 C 16.2379 17.9777 -0.864617
237 4 O 17.4915 17.2109 -0.745685
238 1 H 14.9121 16.6811 -0.0584085
239 1 H 15.738 17.5025 1.17649
240 1 H 14.3873 -0.705112 0.226387
241 1 H 16.715 -0.0619221 -0.911771
242 1 H 15.7238 17.765 17.3015
243 1 H 0.959909 3.75835 9.12994
244 2 C 11.7872 14.2593 3.15126
245 2 C 12.8778 15.2427 3.64202
246 4 O 12.3673 16.0885 4.66773
247 1 H 12.1079 13.5321 2.41817
248 1 H 11.7823 13.7197 4.09809
249 1 H 10.8804 14.7072 2.66498
250 1 H 13.4618 15.9568 3.051
251 1 H 13.6694 14.5888 4.24858
252 1 H 12.1013 15.5526 5.45282
253 2 C -1.00416 5.48137 17.3109
254 2 C 17.0146 5.80143 16.221
255 4 O 17.493 6.78829 15.3739
256 1 H -0.766405 6.41038 17.7847
257 1 H 17.6774 4.81084 18.0872
258 1 H -0.0529384 5.01118 17.0568
259 1 H 16.0397 6.02865 16.6636
260 1 H 16.9396 4.90425 15.6198
261 1 H 17.8225 7.56847 15.8252
262 2 C 1.13941 17.8718 3.60689
263 2 C 2.21427 16.7929 3.83308
264 4 O 1.53686 15.5957 4.12499
265 1 H 0.671737 17.6129 2.69763
266 1 H 0.44816 -1.38311 4.40912
267 1 H 1.29531 -0.105164 3.59668
268 1 H 2.96777 16.9732 4.64697
269 1 H 2.84209 16.7153 2.93615
270 1 H 2.22978 14.9861 4.32081
271 2 C 11.2217 0.322437 15.9873
272 2 C 12.5487 0.823192 15.3545
273 4 O 13.6738 0.80174 16.2276
274 1 H 11.459 -0.0230354 16.9736
275 1 H 10.5321 1.10793 16.1495
276 1 H 10.8097 -0.412481 15.3155
277 1 H 12.4488 1.80539 14.9217
278 1 H 12.8695 0.160327 14.559
279 1 H 13.9073 1.67882 16.3862
280 2 C 9.40809 1.75756 6.37001
281 2 C 9.93987 2.32999 7.66164
282 4 O 9.37355 3.605 7.99101
283 1 H 9.57871 2.44005 5.54682
284 1 H 9.91915 0.819894 6.14766
285 1 H 8.34608 1.56776 6.4
286 1 H 10.9922 2.46718 7.5813
287 1 H 9.76639 1.73217 8.56118
288 1 H 9.68233 4.24363 7.31366
289 2 C 6.46967 5.93862 11.0088
290 2 C 7.53832 4.86709 11.1039
291 4 O 8.84025 5.54334 11.3335
292 1 H 7.00655 6.91749 10.8692
293 1 H 5.81077 5.7413 10.1671
294 1 H 5.86041 5.99026 11.886
295 1 H 7.57585 4.25119 10.187
296 1 H 7.44279 4.17214 11.9524
297 1 H 8.99608 6.14439 10.5732
298 2 C 12.71 10.7322 5.14158
299 2 C 12.7602 10.5754 6.69505
300 4 O 11.6504 9.7954 7.19705
301 1 H 12.9983 11.7405 4.80779
302 1 H 13.4131 10.0086 4.66578
303 1 H 11.7239 10.5029 4.7119
304 1 H 12.6322 11.5027 7.22995
305 1 H 13.6553 10.0723 7.04386
306 1 H 11.0982 9.43751 6.4902
307 2 C 12.385 8.39686 12.6875
308 2 C 12.3307 8.99104 14.0359
309 4 O 13.5082 8.59606 14.8077
310 1 H 11.883 7.42877 12.5523
311 1 H 11.8543 9.03506 11.9983
312 1 H 13.4459 8.26913 12.3234
313 1 H 11.441 8.68517 14.5352
314 1 H 12.3705 10.0777 13.9117
315 1 H 13.4249 7.62986 14.797
316 2 C 3.77628 11.4472 8.75759
317 2 C 5.15328 10.8249 8.88272
318 4 O 5.63578 10.7758 7.53988
319 1 H 3.33585 11.7342 9.68794
320 1 H 3.85234 12.3521 8.18954
321 1 H 3.2057 10.694 8.21546
322 1 H 5.07866 9.75143 9.22068
323 1 H 5.83201 11.376 9.49941
324 1 H 5.48816 11.6813 7.21576
325 2 C 17.2134 -0.320166 11.4144
326 2 C 17.7515 0.386756 12.6816
327 4 O -0.904285 1.71853 12.4194
328 1 H -0.995129 -0.371905 10.6709
329 1 H 16.8386 17.7485 11.7212
330 1 H 16.4301 0.312362 10.9681
331 1 H -0.347093 -0.107622 12.9704
332 1 H 17.1256 0.2558 13.5692
333 1 H -0.405414 2.11714 13.1824
334 2 C 3.0937 6.58923 13.4634
335 2 C 2.36256 6.34489 14.749
336 4 O 1.31301 5.38829 14.6221
337 1 H 3.99595 7.19591 13.6944
338 1 H 3.27255 5.66414 12.9809
339 1 H 2.4975 7.23385 12.7992
340 1 H 1.9398 7.29161 15.1712
341 1 H 3.0507 6.0125 15.5723
342 1 H 0.488844 5.81984 14.5027
343 2 C 4.24259 13.6347 13.4737
344 2 C 5.04696 14.3608 14.5089
345 4 O 5.88266 15.4235 13.9291
346 1 H 3.39197 13.2745 13.9236
347 1 H 3.95675 14.3851 12.8481
348 1 H 4.72116 12.8061 12.9691
349 1 H 5.72053 13.6522 15.0368
350 1 H 4.31436 14.7882 15.2063
351 1 H 6.33144 15.8916 14.6513
352 2 C 4.93667 2.07997 13.9272
353 2 C 4.48103 3.50935 14.132
354 4 O 5.54129 4.29999 14.7757
355 1 H 5.2583 1.65368 14.8758
356 1 H 4.1445 1.47377 13.5056
357 1 H 5.78222 2.04621 13.2239
358 1 H 3.59956 3.51032 14.8187
359 1 H 4.22787 3.92483 13.1277
360 1 H 5.31679 5.21873 14.6019
361 2 C 15.038 16.7217 8.25019
362 2 C 14.1663 17.0848 9.46441
363 4 O 12.9691 17.7151 8.96964
364 1 H 15.0949 17.5674 7.57903
365 1 H 16.0504 16.4676 8.60318
366 1 H 14.662 15.8719 7.69276
367 1 H 14.7023 17.7441 10.1914
368 1 H 13.8834 16.1858 9.96601
369 1 H 13.2373 -0.587709 8.40048
370 2 C 13.0637 5.16618 7.93545
371 2 C 12.7438 6.47409 7.25706
372 4 O 12.4723 7.45179 8.18628
373 1 H 12.264 4.89687 8.59665
374 1 H 13.1378 4.41961 7.17962
375 1 H 14.0116 5.2407 8.45426
376 1 H 11.876 6.34855 6.6191
377 1 H 13.6379 6.78593 6.63474
378 1 H 12.1909 8.26864 7.70251
379 2 C 0.735567 6.0808 4.44904
380 2 C -0.69764 5.56709 4.44252
381 4 O 17.4529 6.70487 4.58933
382 1 H 0.781553 6.69501 5.35158
383 1 H 1.39286 5.21395 4.62011
384 1 H 1.07721 6.56334 3.55096
385 1 H -0.814772 4.87515 5.30373
386 1 H -1.0481 4.98853 3.55398
387 1 H 16.8015 6.48754 5.27597
388 2 C 16.5363 15.0629 12.6181
389 2 C 16.4354 14.572 11.2265
390 4 O 17.6925 13.8839 10.926
391 1 H 17.4484 15.6419 12.6803
392 1 H 15.6412 15.6336 12.8765
393 1 H 16.6331 14.2756 13.3536
394 1 H 16.233 15.3662 10.5378
395 1 H 15.6341 13.8231 11.1365
396 1 H 17.8848 13.8908 9.98465
397 2 C 17.9069 10.2453 8.76356
398 2 C -0.981197 9.9327 10.2544
399 4 O 0.000709621 8.87413 10.4131
400 1 H 17.7158 9.33132 8.23159
401 1 H 17.1091 10.97 8.74295
402 1 H -0.253807 10.6374 8.32631
403 1 H 17.065 9.72535 10.6637
404 1 H -0.614625 10.8851 10.7462
405 1 H 0.411022 9.00489 11.3085
406 2 C 0.141729 12.3417 17.0443
407 2 C 0.423891 10.8431 16.7864
408 4 O -0.168032 10.5631 15.4747
409 1 H 0.545539 12.7666 16.0861
410 1 H -0.985924 12.4489 17.0964
411 1 H 0.69772 12.8482 17.8258
412 1 H -0.079853 10.2494 17.5741
413 1 H 1.4907 10.5938 16.6057
414 1 H -1.10085 10.4078 15.6306
415 2 C 8.82751 6.34308 5.54786
416 2 C 9.13963 7.64957 6.16904
417 4 O 10.0776 8.47935 5.46761
418 1 H 9.73758 5.76918 5.36452
419 1 H 8.3059 5.71754 6.27581
420 1 H 8.2151 6.40717 4.64521
421 1 H 9.58343 7.54138 7.16998
422 1 H 8.15221 8.10768 6.28922
423 1 H 10.0457 8.19334 4.54867
424 2 C 5.69894 13.4729 3.17586
425 2 C 4.38433 14.2379 3.2166
426 4 O 3.55281 13.6137 4.1341
427 1 H 5.74667 12.7363 2.38342
428 1 H 6.57394 14.0951 2.95858
429 1 H 6.02287 13.1204 4.17312
430 1 H 3.85953 14.2861 2.24253
431 1 H 4.62587 15.2809 3.59975
432 1 H 3.02563 12.9145 3.7065
433 2 C -0.298951 5.3002 11.6811
434 2 C -0.521959 4.58022 10.392
435 4 O 0.720769 4.6018 9.55944
436 1 H -0.256887 6.36181 11.6687
437 1 H 18.016 5.10079 12.4326
438 1 H 0.639323 4.94157 12.1314
439 1 H 17.7801 4.99304 9.7977
440 1 H -0.865795 3.60929 10.6094
441 1 H 1.44076 5.25217 9.78907
442 2 C 13.1084 2.67469 -0.0771453
443 2 C 13.457 3.95551 -0.79451
444 4 O 12.9691 4.04652 16.8924
445 1 H 13.6412 1.81616 -0.527821
446 1 H 13.5522 2.74804 0.953973
447 1 H 12.0536 2.40705 0.0380658
448 1 H 14.5336 4.00271 -0.743016
449 1 H 13.0441 4.72737 -0.171195
450 1 H 13.3813 4.7752 16.5049
ITEM: TIMESTEP
7300
ITEM: NUMBER OF ATOMS
450
ITEM: BOX BOUNDS pp pp pp
-1.0795193143782882e+00 1.8004519314378300e+01
-1.0795193143782882e+00 1.8004519314378300e+01
-1.0795193143782882e+00 1.8004519314378300e+01
ITEM: ATOMS id type element x y z
1 2 C 12.2483 6.52069 2.985
2 2 C 11.8616 7.72648 2.06707
3 4 O 10.5852 8.25916 2.30435
4 1 H 13.3008 6.3584 2.86518
5 1 H 12.0943 6.7502 4.04563
6 1 H 11.7758 5.58152 2.73785
7 1 H 11.9349 7.35479 1.02814
8 1 H 12.5316 8.56173 2.1971
9 1 H 9.85171 8.10747 1.72458
10 2 C 14.2358 13.2374 16.7154
11 2 C 14.4818 12.9681 -0.873454
12 4 O 15.8296 12.7938 -0.536201
13 1 H 14.1597 12.3114 16.1632
14 1 H 13.3685 13.8422 16.5162
15 1 H 15.1277 13.7009 16.2503
16 1 H 13.8472 12.1281 -0.617279
17 1 H 14.103 13.7842 -0.306121
18 1 H 16.3273 12.4092 17.8249
19 2 C 13.3675 0.933595 4.13667
20 2 C 13.1946 1.176 5.64518
21 4 O 12.656 -0.00447125 6.26827
22 1 H 12.4699 0.345169 3.85487
23 1 H 13.3363 1.86844 3.567
24 1 H 14.2652 0.413814 3.90235
25 1 H 12.4971 1.96692 5.92621
26 1 H 14.1572 1.47075 6.15658
27 1 H 11.868 -0.275163 5.74999
28 2 C 15.4337 7.28722 9.05883
29 2 C 16.7017 6.95439 8.26289
30 4 O 16.6308 5.70427 7.6223
31 1 H 15.119 6.43154 9.62266
32 1 H 15.631 8.08054 9.74256
33 1 H 14.6853 7.72455 8.43134
34 1 H 17.5473 7.0115 8.96481
35 1 H 16.8428 7.76414 7.49748
36 1 H 17.4431 5.22114 7.77807
37 2 C 2.71509 1.26842 11.0809
38 2 C 3.06537 2.78356 10.9238
39 4 O 3.69195 3.35411 10.0517
40 1 H 1.64431 1.20094 10.8815
41 1 H 3.24857 0.659393 10.3489
42 1 H 2.83714 0.967174 12.1289
43 1 H 2.60547 3.36299 11.758
44 1 H 17.265 16.8633 -1.41366
45 1 H 8.4993 5.91192 8.39697
46 2 C 10.1104 13.3767 6.83012
47 2 C 10.2332 14.9044 6.82192
48 4 O 11.5879 15.3055 7.2052
49 1 H 9.14163 13.2739 6.36405
50 1 H 10.8065 12.8046 6.21679
51 1 H 10.1497 12.9229 7.81075
52 1 H 9.4541 15.4117 7.38053
53 1 H 10.2034 15.2586 5.8155
54 1 H 11.6655 15.2882 8.16758
55 2 C 14.9347 4.01475 13.0389
56 2 C 14.5215 5.48085 13.1809
57 4 O 13.4603 5.71778 14.1337
58 1 H 13.9375 3.51465 12.9817
59 1 H 15.4856 3.93025 12.1134
60 1 H 15.3591 3.45492 13.9084
61 1 H 14.0083 5.68464 12.2087
62 1 H 15.3602 6.1733 13.3718
63 1 H 12.6526 5.5624 13.6189
64 2 C 8.7191 8.98801 10.5016
65 2 C 9.9504 8.54562 9.83234
66 4 O 9.77177 7.25395 9.28021
67 1 H 8.40935 8.3671 11.3646
68 1 H 8.79423 10.0189 10.7901
69 1 H 7.89309 8.88032 9.7786
70 1 H 10.8587 8.56558 10.4161
71 1 H 10.1455 9.2633 9.01235
72 1 H 10.6776 6.83415 9.28311
73 2 C 5.0309 3.25678 6.62289
74 2 C 6.24148 4.08319 6.16013
75 4 O 7.03372 4.50264 7.26807
76 1 H 4.42721 3.73284 7.41344
77 1 H 4.30368 3.16992 5.83739
78 1 H 5.40233 2.30005 6.92518
79 1 H 5.94214 4.98687 5.58121
80 1 H 6.887 3.5326 5.47707
81 1 H 7.86493 4.01289 7.22699
82 2 C 3.27853 10.2878 12.4248
83 2 C 2.16573 9.92829 13.3835
84 4 O 0.898105 9.95738 12.6889
85 1 H 3.20208 9.65137 11.5171
86 1 H 3.25172 11.367 12.1353
87 1 H 4.21031 10.1245 12.8948
88 1 H 2.16948 10.6599 14.197
89 1 H 2.25234 9.0234 13.9265
90 1 H 0.324048 10.3327 13.3748
91 2 C 9.23103 3.7917 14.9795
92 2 C 9.0728 5.22923 14.5312
93 4 O 10.2838 5.75522 13.7809
94 1 H 8.47268 3.44146 15.6791
95 1 H 9.20633 3.28828 14.0418
96 1 H 10.1047 3.71125 15.5711
97 1 H 8.90876 6.01244 15.3558
98 1 H 8.26117 5.1978 13.8429
99 1 H 9.89255 5.89558 12.9174
100 2 C 8.17722 13.8811 10.1421
101 2 C 8.01534 13.8194 11.6499
102 4 O 8.51066 12.5681 12.1204
103 1 H 7.6431 13.0145 9.73493
104 1 H 7.78163 14.8571 9.78612
105 1 H 9.26789 13.8242 9.91216
106 1 H 6.978 13.9308 11.9282
107 1 H 8.52139 14.5623 12.2677
108 1 H 8.10676 11.8822 11.5674
109 2 C 3.95658 15.2144 7.26184
110 2 C 5.23708 14.5271 7.22051
111 4 O 5.21375 13.5056 6.18496
112 1 H 3.7555 15.8221 6.42544
113 1 H 3.16277 14.4892 7.33052
114 1 H 3.89206 15.9804 8.05084
115 1 H 5.5021 14.157 8.18057
116 1 H 6.03305 15.2529 6.93232
117 1 H 4.40821 13.612 5.65418
118 2 C 2.92912 6.10805 7.70802
119 2 C 2.31382 7.30687 8.39069
120 4 O 1.71048 6.82136 9.57401
121 1 H 2.15548 5.48987 7.31214
122 1 H 3.51707 6.35449 6.82507
123 1 H 3.5481 5.5459 8.36997
124 1 H 1.47135 7.67198 7.78645
125 1 H 3.0469 8.10139 8.65688
126 1 H 0.937459 7.36505 9.83459
127 2 C 7.44136 -1.06223 17.865
128 2 C 7.57774 -0.429069 16.5073
129 4 O 7.0891 17.6544 15.5828
130 1 H 7.53118 -0.320576 -0.388623
131 1 H 6.46834 17.6324 -1.13328
132 1 H 8.14102 17.1905 17.9193
133 1 H 8.62161 -0.228647 16.2125
134 1 H 6.97108 0.45708 16.3332
135 1 H 7.83912 17.0967 15.325
136 2 C 7.04439 9.59208 4.16829
137 2 C 8.09022 10.67 4.01679
138 4 O 8.4625 10.7974 2.6584
139 1 H 7.46648 8.56205 3.96528
140 1 H 6.63011 9.65957 5.19775
141 1 H 6.22306 9.8102 3.49313
142 1 H 8.98404 10.4381 4.59346
143 1 H 7.69693 11.5887 4.39494
144 1 H 9.39377 10.7568 2.45222
145 2 C 8.16343 17.9973 3.50061
146 2 C 9.69616 -0.704157 3.57547
147 4 O 10.1629 17.8466 4.85512
148 1 H 7.86145 -1.4323 2.53137
149 1 H 8.04114 17.1648 4.17887
150 1 H 7.51444 -0.297384 3.97305
151 1 H 9.85676 0.365766 3.55531
152 1 H 10.3 -1.11605 2.72494
153 1 H 10.7905 17.1029 4.63027
154 2 C -0.166485 0.764203 16.1613
155 2 C 0.246918 2.20727 16.1331
156 4 O 0.473966 2.60445 14.7705
157 1 H 0.600768 0.225389 15.6102
158 1 H -0.297079 0.420811 17.1903
159 1 H 17.9755 0.590861 15.6622
160 1 H 1.19278 2.27062 16.6916
161 1 H -0.499957 2.86816 16.5993
162 1 H 0.755231 3.52509 14.7494
163 2 C 17.7666 10.9094 5.62932
164 2 C -0.0162114 10.7373 4.90597
165 4 O -0.0727915 10.0026 3.66869
166 1 H 17.3739 10.013 6.16045
167 1 H 17.9485 11.639 6.41577
168 1 H 16.9877 11.3742 4.983
169 1 H 0.742101 10.3007 5.59869
170 1 H 0.41842 11.7236 4.70229
171 1 H -0.520569 9.17327 3.84822
172 2 C 11.2618 8.64508 17.6123
173 2 C 11.9739 7.26579 17.2708
174 4 O 11.1861 6.30629 -1.11228
175 1 H 10.1904 8.4151 17.8232
176 1 H 11.6953 8.94522 -0.498634
177 1 H 11.3842 9.37369 16.8156
178 1 H 13.0144 7.31512 17.5352
179 1 H 11.9116 7.01734 16.1834
180 1 H 11.3245 5.41545 17.5928
181 2 C 2.41933 1.27668 6.88123
182 2 C 1.54226 2.53601 7.2854
183 4 O 1.0118 2.40406 8.61134
184 1 H 1.761 0.404224 6.89882
185 1 H 2.88028 1.33948 5.88275
186 1 H 3.24941 1.14728 7.54756
187 1 H 0.767312 2.53574 6.51684
188 1 H 2.1045 3.48232 7.22343
189 1 H 0.135692 2.03192 8.57643
190 2 C 6.10567 -0.472156 10.1598
191 2 C 6.45736 18.0276 11.4995
192 4 O 7.5006 17.018 11.3877
193 1 H 5.29055 0.297805 10.1435
194 1 H 7.03222 -0.0761124 9.73964
195 1 H 5.81751 -1.26395 9.46575
196 1 H 5.54861 17.5805 11.9531
197 1 H 6.83985 -0.325683 12.2143
198 1 H 7.0936 16.1525 11.301
199 2 C 12.3346 14.1524 13.1279
200 2 C 12.3009 12.676 13.2723
201 4 O 11.4409 11.976 12.3291
202 1 H 12.8 14.5718 14.058
203 1 H 12.9641 14.3998 12.3037
204 1 H 11.3056 14.5005 13.0359
205 1 H 12.0286 12.3976 14.3132
206 1 H 13.2838 12.2643 13.0882
207 1 H 10.4968 12.1751 12.4555
208 2 C 2.43706 9.99413 0.962893
209 2 C 2.93297 11.456 1.25462
210 4 O 2.01736 12.1085 2.13975
211 1 H 2.26932 9.45142 1.90477
212 1 H 1.44823 10.053 0.469952
213 1 H 3.06868 9.46935 0.253749
214 1 H 2.99023 12.0584 0.350954
215 1 H 3.94578 11.4247 1.63331
216 1 H 1.45087 11.4536 2.57804
217 2 C 15.2088 11.0125 13.3942
218 2 C 16.0849 9.89773 14
219 4 O 16.2901 10.3141 15.3691
220 1 H 14.3541 11.1544 14.0736
221 1 H 15.7533 12.0124 13.3572
222 1 H 14.7294 10.8465 12.4429
223 1 H 17.0897 9.77783 13.4557
224 1 H 15.5022 8.96423 13.9356
225 1 H 15.4446 10.3962 15.7872
226 2 C 15.3391 2.71563 9.11756
227 2 C 16.4372 2.05092 8.40009
228 4 O 17.2433 2.70436 7.40115
229 1 H 14.4957 2.94432 8.45021
230 1 H 14.9702 1.97083 9.89539
231 1 H 15.6293 3.67048 9.57821
232 1 H 15.8554 1.29707 7.90746
233 1 H 17.0442 1.42245 9.06905
234 1 H 16.7966 2.53685 6.58004
235 2 C 15.2984 17.7658 0.305447
236 2 C 16.3146 -0.752623 -0.626662
237 4 O 17.4554 17.4224 -0.674907
238 1 H 15.0522 16.7032 0.137923
239 1 H 15.6427 17.9803 1.37608
240 1 H 14.4129 -0.858969 0.0294201
241 1 H 16.708 0.207165 -0.329843
242 1 H 15.8094 -0.638693 17.4506
243 1 H 1.02789 3.76053 9.2889
244 2 C 11.7013 14.5111 3.13738
245 2 C 12.8348 15.2149 3.79233
246 4 O 12.395 16.3112 4.69203
247 1 H 12.3437 13.7326 2.58507
248 1 H 11.2371 13.8249 3.80329
249 1 H 11.016 15.1591 2.56657
250 1 H 13.6266 15.6052 3.20427
251 1 H 13.2977 14.5808 4.4269
252 1 H 12.5025 16.0961 5.62056
253 2 C -0.996205 5.60021 17.3336
254 2 C 17.1762 5.65906 16.1273
255 4 O 17.5702 6.77065 15.2101
256 1 H -1.15912 6.51329 17.9396
257 1 H 17.8672 4.74503 -1.06905
258 1 H 0.0995678 5.55081 17.11
259 1 H 16.1247 5.79777 16.4427
260 1 H 17.2821 4.716 15.579
261 1 H 16.9207 7.478 15.2408
262 2 C 1.0536 17.8324 3.79736
263 2 C 2.24001 16.892 3.83916
264 4 O 1.70143 15.6163 3.84314
265 1 H 0.47226 17.7466 2.82681
266 1 H 0.376346 17.7535 4.64725
267 1 H 1.46153 -0.23475 3.72112
268 1 H 2.88488 17.0756 4.67679
269 1 H 2.80583 17.1181 2.91227
270 1 H 2.38062 14.9615 4.12942
271 2 C 11.2097 0.309836 16.1323
272 2 C 12.5302 0.570184 15.3806
273 4 O 13.4672 1.1674 16.2735
274 1 H 11.2104 -0.731638 16.4679
275 1 H 11.2203 0.897025 17.0757
276 1 H 10.3877 0.556322 15.4654
277 1 H 12.4125 1.21011 14.4873
278 1 H 13.022 -0.332589 15.0309
279 1 H 13.1217 2.10238 16.4861
280 2 C 9.55993 1.71775 6.25504
281 2 C 10.1349 1.98698 7.59523
282 4 O 9.75978 3.33834 7.92721
283 1 H 10.0351 2.27358 5.44318
284 1 H 9.55858 0.663927 6.01995
285 1 H 8.50961 2.01476 6.32265
286 1 H 11.2338 1.8668 7.67109
287 1 H 9.68196 1.41235 8.41296
288 1 H 10.2871 3.90875 7.34988
289 2 C 6.52339 6.188 10.8924
290 2 C 7.61244 5.10959 10.7613
291 4 O 8.85334 5.57296 11.2066
292 1 H 6.62053 6.94314 10.129
293 1 H 5.5624 5.68082 10.9002
294 1 H 6.60181 6.6182 11.8962
295 1 H 7.61087 4.72721 9.76293
296 1 H 7.37619 4.21438 11.3774
297 1 H 9.09409 6.32145 10.6325
298 2 C 12.9233 10.636 5.4887
299 2 C 12.8243 10.375 6.93991
300 4 O 11.7891 9.54788 7.3711
301 1 H 13.7623 11.3117 5.29291
302 1 H 13.2975 9.72488 5.00195
303 1 H 11.9546 10.8884 5.08546
304 1 H 12.6826 11.2627 7.55535
305 1 H 13.7839 9.89596 7.26099
306 1 H 11.3556 9.09497 6.62174
307 2 C 12.0035 8.81715 12.5306
308 2 C 12.2348 9.03042 14.0236
309 4 O 13.2938 8.36229 14.6715
310 1 H 11.929 7.74258 12.392
311 1 H 11.0504 9.25869 12.206
312 1 H 12.7991 9.17349 11.903
313 1 H 11.2978 8.75011 14.5787
314 1 H 12.3854 10.0757 14.2226
315 1 H 13.114 7.43251 14.4822
316 2 C 3.56561 11.22 8.84057
317 2 C 5.03386 10.7687 8.75781
318 4 O 5.82102 10.8891 7.59436
319 1 H 3.28618 11.196 9.89765
320 1 H 3.45584 12.2702 8.52215
321 1 H 2.93304 10.5367 8.27162
322 1 H 5.02877 9.69443 8.93028
323 1 H 5.5896 11.2092 9.62311
324 1 H 5.63304 11.7401 7.18551
325 2 C 17.2151 -0.218506 11.6063
326 2 C 17.8362 0.436971 12.8157
327 4 O -0.775156 1.74249 12.4323
328 1 H 17.8506 -0.0270897 10.7592
329 1 H 17.0612 17.7927 11.7239
330 1 H 16.3233 0.342647 11.4704
331 1 H -0.399378 -0.0326847 13.2579
332 1 H 17.0682 0.544578 13.5995
333 1 H -0.354089 2.17738 13.1647
334 2 C 3.03707 6.66423 13.4332
335 2 C 2.23531 6.40233 14.7328
336 4 O 1.31135 5.30008 14.5046
337 1 H 3.55332 7.59291 13.4396
338 1 H 3.76419 5.90866 13.1473
339 1 H 2.23161 6.69885 12.6966
340 1 H 1.58787 7.24 14.8946
341 1 H 2.76391 6.15068 15.6169
342 1 H 0.568606 5.65872 14.0078
343 2 C 4.21505 13.9022 13.3261
344 2 C 5.10368 14.6682 14.3854
345 4 O 5.97343 15.4693 13.6219
346 1 H 3.57406 13.0473 13.8786
347 1 H 3.45613 14.6079 12.9127
348 1 H 4.90864 13.5267 12.5174
349 1 H 5.70203 13.9309 14.9659
350 1 H 4.51148 15.2375 15.0837
351 1 H 6.32743 16.1716 14.1694
352 2 C 4.71808 2.04349 14.1077
353 2 C 4.45875 3.5661 14.0992
354 4 O 5.2361 4.06276 15.1427
355 1 H 4.57158 1.70468 15.1366
356 1 H 4.0214 1.50955 13.4518
357 1 H 5.7008 1.83239 13.7179
358 1 H 3.42861 3.7729 14.3114
359 1 H 4.7869 3.96721 13.1623
360 1 H 5.22494 5.00798 15.1236
361 2 C 15.0409 16.8437 8.16582
362 2 C 14.1472 17.4219 9.24318
363 4 O 13.0523 -0.88377 8.77141
364 1 H 15.7629 17.5837 7.81272
365 1 H 15.5495 15.9534 8.52949
366 1 H 14.4905 16.5888 7.26722
367 1 H 14.7445 17.9831 9.93759
368 1 H 13.8127 16.5905 9.91371
369 1 H 13.1169 -0.572354 7.87708
370 2 C 13.1119 5.01243 7.74025
371 2 C 12.5901 6.38869 7.34894
372 4 O 12.3096 7.04518 8.59639
373 1 H 12.3596 4.42587 8.29669
374 1 H 13.4831 4.42729 6.87367
375 1 H 13.9576 5.25156 8.40939
376 1 H 11.7555 6.4528 6.64437
377 1 H 13.4279 6.87808 6.87746
378 1 H 12.0519 7.91695 8.25127
379 2 C 0.842008 5.92452 3.9229
380 2 C -0.545372 5.57845 4.41522
381 4 O 17.707 6.73732 4.35209
382 1 H 1.47699 6.17674 4.76292
383 1 H 1.33734 5.08627 3.40138
384 1 H 0.808435 6.80922 3.28501
385 1 H -0.507218 5.29691 5.46586
386 1 H -1.06796 4.81837 3.89524
387 1 H 17.0321 6.68108 5.03843
388 2 C 16.4175 15.0395 12.7403
389 2 C 16.4702 14.6391 11.2627
390 4 O 17.7976 14.3624 10.9458
391 1 H 17.0008 15.9501 12.9432
392 1 H 15.3914 15.1988 13.1207
393 1 H 16.8272 14.2061 13.3208
394 1 H 16.0269 15.3764 10.5844
395 1 H 15.8996 13.7155 11.1447
396 1 H 17.9362 14.248 10.0277
397 2 C 17.8723 10.1853 8.85973
398 2 C -1.05916 9.85893 10.3669
399 4 O -0.0535658 8.90496 10.6232
400 1 H 17.9633 9.25471 8.33361
401 1 H 16.8667 10.6804 8.6596
402 1 H -0.414418 10.8676 8.51178
403 1 H 17.0705 9.54895 10.7826
404 1 H -0.762971 10.7456 10.898
405 1 H 0.350165 9.05289 11.4641
406 2 C 0.363613 12.3723 17.1069
407 2 C 0.25387 10.9204 16.6723
408 4 O -0.0895705 10.6927 15.3101
409 1 H 1.27281 12.8204 16.6721
410 1 H -0.45015 12.9767 16.7578
411 1 H 0.414694 12.3197 -0.900743
412 1 H -0.423728 10.4601 17.3692
413 1 H 1.23944 10.5349 16.7097
414 1 H -1.03215 10.476 15.2266
415 2 C 9.10605 6.25227 5.58383
416 2 C 9.09791 7.69524 6.10064
417 4 O 10.2849 8.29889 5.47181
418 1 H 9.7995 5.65593 6.14798
419 1 H 8.1379 5.75253 5.67736
420 1 H 9.32887 6.21125 4.52694
421 1 H 9.34949 7.73356 7.14864
422 1 H 8.15056 8.16951 5.91988
423 1 H 10.2017 8.12631 4.50716
424 2 C 5.79148 13.2561 3.12607
425 2 C 4.67333 14.2494 3.40489
426 4 O 3.48474 13.5668 3.94579
427 1 H 5.49679 12.4576 2.39537
428 1 H 6.68315 13.7295 2.7389
429 1 H 6.12433 12.8155 4.07545
430 1 H 4.31646 14.7169 2.5093
431 1 H 5.02617 14.9619 4.05397
432 1 H 3.01268 12.9835 3.34169
433 2 C -0.515723 5.29151 11.6726
434 2 C -0.494144 4.61008 10.3241
435 4 O 0.782323 4.50565 9.84825
436 1 H -0.031481 6.25463 11.664
437 1 H 17.5325 5.45378 12.0255
438 1 H 0.0580776 4.73064 12.461
439 1 H 18.0475 5.27622 9.60079
440 1 H -0.98768 3.58683 10.511
441 1 H 1.23817 5.39518 9.69548
442 2 C 12.9014 3.02093 0.00489628
443 2 C 13.5461 4.12406 -0.852241
444 4 O 12.9997 3.98146 16.927
445 1 H 13.2422 2.05117 -0.334177
446 1 H 13.1118 3.12168 1.06419
447 1 H 11.8366 3.01539 -0.179592
448 1 H 14.665 4.11918 -0.82089
449 1 H 13.1989 5.05836 -0.39004
450 1 H 13.375 4.66556 16.3192
ITEM: TIMESTEP
7400
ITEM: NUMBER OF ATOMS
450
ITEM: BOX BOUNDS pp pp pp
-1.1405351209258878e+00 1.8065535120925880e+01
-1.1405351209258878e+00 1.8065535120925880e+01
-1.1405351209258878e+00 1.8065535120925880e+01
ITEM: ATOMS id type element x y z
1 2 C 12.096 6.21249 2.44515
2 2 C 12.0313 7.66891 2.04222
3 4 O 10.7349 8.27095 2.37489
4 1 H 13.1082 5.84489 2.25105
5 1 H 11.9812 6.10851 3.53414
6 1 H 11.3154 5.58544 1.93582
7 1 H 12.1066 7.72157 0.959413
8 1 H 12.7952 8.34297 2.43006
9 1 H 9.99163 7.67257 2.3318
10 2 C 14.2669 13.0781 16.7799
11 2 C 14.5957 13.2044 -0.917799
12 4 O 15.8739 12.6303 -0.603967
13 1 H 14.5074 12.0424 16.4242
14 1 H 13.183 13.2155 16.6255
15 1 H 14.8541 13.7384 16.1667
16 1 H 13.7496 12.6997 -0.447264
17 1 H 14.5432 14.3041 -0.66601
18 1 H 15.8173 11.6919 -0.768005
19 2 C 13.459 1.35895 4.41375
20 2 C 13.2078 0.930565 5.85544
21 4 O 12.3515 -0.199614 6.13263
22 1 H 12.6706 2.04876 4.05741
23 1 H 14.4217 1.88485 4.38677
24 1 H 13.4172 0.517555 3.70653
25 1 H 12.8045 1.67777 6.52207
26 1 H 14.1539 0.66779 6.25844
27 1 H 11.5948 -0.124996 5.55767
28 2 C 15.5151 7.10287 9.26572
29 2 C 16.6909 6.86891 8.32202
30 4 O 16.3672 5.645 7.68275
31 1 H 15.6433 6.22459 9.9636
32 1 H 15.572 8.03513 9.84028
33 1 H 14.564 7.02412 8.71791
34 1 H 17.6234 6.89266 8.89404
35 1 H 16.7685 7.65061 7.61002
36 1 H 17.1128 5.06137 7.80804
37 2 C 2.41236 1.2234 11.0901
38 2 C 2.91839 2.64422 10.9839
39 4 O 3.6043 2.89891 10.0128
40 1 H 1.30992 1.18313 11.2218
41 1 H 2.7309 0.68827 10.19
42 1 H 2.87493 0.810131 11.9424
43 1 H 2.70543 3.41815 11.8092
44 1 H 17.3078 17.084 17.9732
45 1 H 9.33855 5.36761 8.09647
46 2 C 10.7783 13.4456 7.00131
47 2 C 10.5986 14.9191 6.87861
48 4 O 11.7736 15.5403 7.27939
49 1 H 9.8418 12.8978 6.7913
50 1 H 11.597 13.0822 6.39281
51 1 H 11.0889 13.2509 8.05262
52 1 H 9.76494 15.2689 7.5072
53 1 H 10.4299 15.2409 5.83349
54 1 H 11.5727 16.4762 7.12526
55 2 C 15.0231 4.20952 12.8257
56 2 C 14.0737 5.45383 12.8576
57 4 O 13.3066 5.55741 14.0698
58 1 H 14.3677 3.43409 13.2259
59 1 H 15.3314 4.03352 11.8333
60 1 H 15.9764 4.32877 13.4351
61 1 H 13.5453 5.572 11.9097
62 1 H 14.7323 6.2956 12.8848
63 1 H 12.4395 5.23182 13.9153
64 2 C 8.44191 9.20683 10.4071
65 2 C 9.79526 8.6416 9.93513
66 4 O 9.63444 7.34605 9.36894
67 1 H 7.95411 8.6428 11.2101
68 1 H 8.6932 10.1885 10.7705
69 1 H 7.71611 9.29981 9.59452
70 1 H 10.5346 8.61789 10.7049
71 1 H 10.1366 9.32061 9.15716
72 1 H 10.5176 6.97953 9.23217
73 2 C 5.20381 2.93125 6.5365
74 2 C 6.29442 3.79304 6.11867
75 4 O 7.09015 4.15208 7.30951
76 1 H 4.65692 3.31777 7.41172
77 1 H 4.46093 2.79785 5.73566
78 1 H 5.55324 1.90853 6.80361
79 1 H 6.00754 4.72893 5.69577
80 1 H 7.01292 3.33586 5.43069
81 1 H 7.78473 3.47051 7.37902
82 2 C 3.54225 10.2084 12.6295
83 2 C 2.3206 10.2328 13.5683
84 4 O 1.07453 10.2603 12.8879
85 1 H 3.55387 9.30713 12.1043
86 1 H 3.50902 11.0543 11.947
87 1 H 4.53017 10.2655 13.1861
88 1 H 2.47453 11.0544 14.3041
89 1 H 2.3807 9.2831 14.1056
90 1 H 0.597732 10.6976 13.6062
91 2 C 9.55389 4.02405 14.9852
92 2 C 9.16105 5.37302 14.5753
93 4 O 9.99685 6.00438 13.7989
94 1 H 8.61892 3.58125 15.381
95 1 H 9.941 3.53194 14.092
96 1 H 10.2827 4.08372 15.8758
97 1 H 8.84148 5.96287 15.3578
98 1 H 8.10301 5.21351 14.0896
99 1 H 9.64479 6.03727 12.874
100 2 C 8.24559 13.8623 10.0067
101 2 C 8.08188 13.7939 11.524
102 4 O 8.84554 12.7439 12.1963
103 1 H 7.84803 12.9524 9.5769
104 1 H 7.60862 14.6726 9.66249
105 1 H 9.26921 14.0144 9.70971
106 1 H 7.00475 13.6141 11.7411
107 1 H 8.38201 14.6753 12.0307
108 1 H 8.46966 11.8825 11.9656
109 2 C 3.86802 15.1814 7.11122
110 2 C 5.12375 14.3114 7.19024
111 4 O 5.02939 13.1671 6.42814
112 1 H 3.80442 15.7463 6.13524
113 1 H 2.8959 14.6895 7.27909
114 1 H 3.8652 16.0098 7.82394
115 1 H 5.21667 14.0982 8.26944
116 1 H 5.9755 14.9204 6.8939
117 1 H 4.55219 13.3249 5.59086
118 2 C 2.63205 5.94294 7.62081
119 2 C 2.44121 7.26555 8.29491
120 4 O 1.45963 7.12003 9.36715
121 1 H 1.64746 5.47327 7.40121
122 1 H 3.02218 6.08296 6.61021
123 1 H 3.30824 5.24527 8.1315
124 1 H 2.015 7.96623 7.60227
125 1 H 3.36772 7.6301 8.67556
126 1 H 1.04034 7.9287 9.68533
127 2 C 7.37113 -1.05067 18.0308
128 2 C 7.37337 -0.784005 16.5392
129 4 O 7.39613 17.2582 15.6789
130 1 H 7.57378 -0.132616 -0.642412
131 1 H 6.36057 17.8417 -0.872089
132 1 H 8.1349 17.3848 -0.914484
133 1 H 8.22494 -0.184876 16.2035
134 1 H 6.51267 -0.223879 16.1823
135 1 H 7.60246 16.4794 16.1895
136 2 C 6.87607 9.83201 4.23291
137 2 C 8.22111 10.513 3.99269
138 4 O 8.46556 10.742 2.59998
139 1 H 6.90885 8.9484 3.63553
140 1 H 6.73958 9.49739 5.24959
141 1 H 6.106 10.5327 3.98573
142 1 H 9.06334 9.86294 4.33234
143 1 H 8.27841 11.4012 4.61868
144 1 H 8.47752 9.90249 2.13859
145 2 C 8.14703 -0.909919 3.68903
146 2 C 9.63379 -1.13725 3.55001
147 4 O 10.2718 17.95 4.79838
148 1 H 7.66316 17.9579 2.73472
149 1 H 7.8055 17.6507 4.5085
150 1 H 7.82275 0.0740793 3.91706
151 1 H 10.0932 -0.275017 2.96791
152 1 H 9.88293 17.2123 2.95468
153 1 H 11.0447 17.3553 4.64491
154 2 C -0.262497 0.759572 16.3331
155 2 C 0.268262 2.21056 16.1877
156 4 O 0.356515 2.53463 14.8307
157 1 H 0.451887 0.0459846 15.9205
158 1 H -0.435635 0.58565 17.3903
159 1 H 18.0144 0.694694 15.7622
160 1 H 1.227 2.31 16.7019
161 1 H -0.369231 2.89055 16.7415
162 1 H 0.685484 3.45374 14.7711
163 2 C 17.7381 10.7832 5.38297
164 2 C 0.0409552 10.8679 4.95576
165 4 O 0.180061 10.1697 3.73923
166 1 H 17.4827 9.74207 5.40707
167 1 H 17.5 11.1403 6.37753
168 1 H 17.1528 11.2719 4.62895
169 1 H 0.750313 10.572 5.71218
170 1 H 0.334095 11.8994 4.71268
171 1 H -0.118524 9.25961 3.84342
172 2 C 11.0049 8.37974 17.6456
173 2 C 11.8684 7.17419 17.3745
174 4 O 11.1905 5.94715 17.751
175 1 H 10.0291 8.31981 17.2478
176 1 H 10.8736 8.41209 -0.503125
177 1 H 11.5144 9.1579 17.0934
178 1 H 12.8162 7.35945 17.948
179 1 H 12.1843 7.14406 16.3005
180 1 H 11.6625 5.23202 17.2985
181 2 C 2.28039 1.18214 6.96201
182 2 C 1.41761 2.42075 7.16559
183 4 O 0.728477 2.38978 8.45986
184 1 H 1.58837 0.359574 6.96803
185 1 H 2.7613 1.20437 5.96524
186 1 H 3.10653 1.13706 7.63777
187 1 H 0.838571 2.37691 6.25731
188 1 H 2.007 3.32964 7.09701
189 1 H -0.127158 2.83868 8.45896
190 2 C 5.97079 -0.597982 10.2628
191 2 C 6.44786 -1.0287 11.6512
192 4 O 7.12379 16.9915 11.5499
193 1 H 5.47648 0.366732 10.368
194 1 H 6.80376 -0.347007 9.62729
195 1 H 5.30888 17.9012 9.78784
196 1 H 5.55873 -1.06631 12.2973
197 1 H 7.05253 -0.248632 12.0957
198 1 H 7.03392 16.4871 12.3565
199 2 C 12.3306 14.0785 13.2636
200 2 C 12.1829 12.5495 13.4611
201 4 O 11.3029 12.0258 12.4827
202 1 H 13.0253 14.4492 13.9958
203 1 H 12.7744 14.3003 12.2954
204 1 H 11.3775 14.6186 13.4413
205 1 H 11.9064 12.267 14.4742
206 1 H 13.0903 12.0332 13.2929
207 1 H 10.4444 12.4871 12.3482
208 2 C 2.03537 9.95162 0.736269
209 2 C 2.74817 11.2487 1.06314
210 4 O 1.88275 12.1822 1.76465
211 1 H 1.54455 9.48247 1.58303
212 1 H 1.25691 10.1282 -0.00158399
213 1 H 2.78709 9.31523 0.251802
214 1 H 3.08502 11.751 0.144387
215 1 H 3.6652 11.0071 1.64641
216 1 H 1.3928 11.6575 2.40482
217 2 C 15.6253 10.767 12.9662
218 2 C 16.1215 9.98933 14.1537
219 4 O 16.3803 10.7362 15.3605
220 1 H 14.6883 11.2707 13.1619
221 1 H 16.3128 11.5032 12.5849
222 1 H 15.2434 10.1291 12.1811
223 1 H 17.0267 9.51247 13.9179
224 1 H 15.3861 9.25953 14.3479
225 1 H 15.7038 10.5746 15.9921
226 2 C 15.5192 2.33587 9.0372
227 2 C 16.7399 1.80139 8.21724
228 4 O 17.0856 2.97025 7.5215
229 1 H 14.6814 2.33403 8.37122
230 1 H 15.2921 1.73496 9.89413
231 1 H 15.7658 3.36665 9.23894
232 1 H 16.3344 0.972705 7.57401
233 1 H 17.5172 1.46517 8.87279
234 1 H 17.3102 2.86005 6.60141
235 2 C 15.2099 17.9752 0.325351
236 2 C 16.4153 -0.603656 -0.507919
237 4 O 17.5181 17.821 -0.690771
238 1 H 14.6867 17.1646 -0.186064
239 1 H 15.7074 17.6431 1.22876
240 1 H 14.3944 -0.507844 0.620411
241 1 H 16.8196 0.234137 0.0426465
242 1 H 16.096 -0.162943 17.7554
243 1 H 0.863775 3.75379 9.85035
244 2 C 11.6551 14.7729 3.09901
245 2 C 12.8417 15.1934 3.99023
246 4 O 12.5579 16.38 4.72185
247 1 H 11.8247 13.7804 2.72049
248 1 H 10.6282 14.8037 3.55378
249 1 H 11.6511 15.6594 2.45896
250 1 H 13.6674 15.539 3.26347
251 1 H 13.4395 14.6005 4.76782
252 1 H 12.8635 16.447 5.64131
253 2 C -1.08935 5.83216 17.2826
254 2 C 17.4505 5.56836 15.9445
255 4 O 17.7235 6.67363 15.1007
256 1 H 17.739 6.61909 17.9197
257 1 H -1.19095 4.94007 17.8594
258 1 H -0.0625561 5.99887 17.1017
259 1 H 16.3824 5.61707 16.0745
260 1 H 17.65 4.56039 15.5896
261 1 H 17.0327 6.6829 14.4314
262 2 C 1.00241 -1.07416 3.91424
263 2 C 2.08275 17.094 3.82373
264 4 O 1.50014 15.7292 3.62682
265 1 H 0.217426 18.0533 3.15801
266 1 H 0.464835 -1.10105 4.85393
267 1 H 1.5072 -0.129398 3.80929
268 1 H 2.64181 17.1125 4.79489
269 1 H 2.72483 17.2979 2.98286
270 1 H 2.25669 15.1272 3.81135
271 2 C 11.2261 0.317917 16.2135
272 2 C 12.6129 0.354857 15.6457
273 4 O 13.3924 1.48275 16.1554
274 1 H 10.6511 -0.438272 15.6682
275 1 H 11.3302 0.198835 17.3032
276 1 H 10.7424 1.2894 16.0445
277 1 H 12.614 0.414878 14.5644
278 1 H 13.1895 -0.535711 15.9152
279 1 H 12.8306 2.17442 16.4445
280 2 C 9.65425 1.56231 6.10027
281 2 C 10.1244 1.80176 7.53032
282 4 O 10.0456 3.17884 7.92384
283 1 H 10.2088 2.14685 5.35526
284 1 H 9.71862 0.504575 5.8684
285 1 H 8.5745 1.7851 6.07117
286 1 H 11.1089 1.32499 7.70029
287 1 H 9.46123 1.30695 8.20575
288 1 H 10.0933 3.20876 8.87455
289 2 C 6.47148 6.2424 10.7592
290 2 C 7.56579 5.16655 10.8886
291 4 O 8.92423 5.47196 11.2087
292 1 H 6.54739 6.81492 9.86558
293 1 H 5.51162 5.69315 10.7979
294 1 H 6.53862 6.88353 11.6727
295 1 H 7.49105 4.63773 9.92745
296 1 H 7.29447 4.52836 11.7001
297 1 H 9.22495 6.28562 10.8036
298 2 C 13.1802 10.5026 5.69514
299 2 C 13.0534 10.2972 7.24979
300 4 O 12.0824 9.27085 7.57115
301 1 H 14.2281 10.6315 5.44509
302 1 H 12.823 9.67543 5.09748
303 1 H 12.6121 11.3965 5.48642
304 1 H 12.765 11.2087 7.78074
305 1 H 13.9849 10.0284 7.69795
306 1 H 11.6441 9.0248 6.7371
307 2 C 11.7887 9.152 12.701
308 2 C 11.9603 8.92936 14.2216
309 4 O 13.3101 8.49222 14.427
310 1 H 11.8263 8.12259 12.3081
311 1 H 10.8249 9.65446 12.4738
312 1 H 12.5788 9.73296 12.2831
313 1 H 11.256 8.26128 14.6833
314 1 H 11.8194 9.8607 14.7748
315 1 H 13.2171 7.52052 14.462
316 2 C 3.49726 11.0373 8.60227
317 2 C 4.9982 10.7932 8.80487
318 4 O 5.79735 10.9393 7.63004
319 1 H 2.95401 10.5039 9.39668
320 1 H 3.28452 12.1103 8.6185
321 1 H 3.15968 10.6718 7.64362
322 1 H 5.16133 9.79036 9.14829
323 1 H 5.35266 11.4039 9.62691
324 1 H 5.54201 11.7935 7.2344
325 2 C 17.2421 -0.110393 11.6495
326 2 C 17.9873 0.479398 12.8321
327 4 O -0.762149 1.7539 12.4162
328 1 H 17.8977 -0.54479 10.9215
329 1 H 16.7278 -0.949551 12.1338
330 1 H 16.4956 0.624797 11.2778
331 1 H -0.419732 -0.145822 13.3087
332 1 H 17.1709 0.644261 13.5361
333 1 H -0.286936 2.15152 13.182
334 2 C 2.91783 6.61827 13.3902
335 2 C 2.11873 6.31517 14.6441
336 4 O 1.13425 5.28352 14.5356
337 1 H 3.84134 7.06668 13.7439
338 1 H 3.24796 5.72179 12.7951
339 1 H 2.3791 7.2824 12.714
340 1 H 1.53466 7.20634 14.9627
341 1 H 2.75767 5.9726 15.4689
342 1 H 0.278312 5.77559 14.4193
343 2 C 4.17021 14.1663 13.2949
344 2 C 5.11158 14.8925 14.1662
345 4 O 5.97216 15.794 13.5133
346 1 H 3.76679 13.4875 13.8908
347 1 H 3.36848 14.7255 12.7695
348 1 H 4.78842 13.7334 12.5864
349 1 H 5.6893 14.1302 14.6909
350 1 H 4.60585 15.4986 14.9586
351 1 H 6.31704 16.3637 14.2151
352 2 C 4.5852 1.86003 14.4863
353 2 C 4.61665 3.32622 14.2717
354 4 O 4.95708 4.00424 15.4991
355 1 H 3.75861 1.62101 15.1532
356 1 H 4.39031 1.40234 13.5097
357 1 H 5.56226 1.52754 14.8287
358 1 H 3.64232 3.71696 13.8738
359 1 H 5.38896 3.59545 13.5019
360 1 H 5.0156 4.92661 15.3084
361 2 C 14.9287 17.1435 7.92684
362 2 C 14.1661 17.703 9.12032
363 4 O 13.2201 -0.526728 8.80188
364 1 H 15.4002 17.9319 7.33197
365 1 H 15.7123 16.4588 8.2235
366 1 H 14.2676 16.6191 7.2049
367 1 H 14.9107 -1.0309 9.80465
368 1 H 13.7209 16.8687 9.63627
369 1 H 12.9764 -0.480169 7.84878
370 2 C 13.1323 4.82486 7.41541
371 2 C 12.4224 6.19116 7.37499
372 4 O 12.2925 6.78477 8.70717
373 1 H 12.5035 3.9953 7.73658
374 1 H 13.3864 4.62583 6.37303
375 1 H 14.0182 4.78762 8.0314
376 1 H 11.3872 6.0486 7.00936
377 1 H 12.8748 6.9181 6.68551
378 1 H 12.2902 7.74388 8.50798
379 2 C 0.84026 5.82598 3.41183
380 2 C -0.399715 5.61327 4.23617
381 4 O -1.06188 6.86248 4.43023
382 1 H 1.42734 6.71536 3.67082
383 1 H 1.47117 4.97028 3.48966
384 1 H 0.514997 5.99605 2.37781
385 1 H -0.206464 5.22733 5.23309
386 1 H -1.13312 4.95926 3.69815
387 1 H 17.2443 6.69494 4.69591
388 2 C 16.3284 14.8797 12.891
389 2 C 16.5298 14.7548 11.4215
390 4 O 17.9124 14.8889 10.9987
391 1 H 16.6176 15.8372 13.3059
392 1 H 15.283 14.8139 13.1051
393 1 H 16.8199 14.052 13.3902
394 1 H 15.9658 15.5699 10.9228
395 1 H 16.1384 13.7963 11.0693
396 1 H 17.907 14.6472 10.0957
397 2 C 18.0435 10.3143 9.06914
398 2 C 17.9721 9.73544 10.4299
399 4 O -0.178515 8.84498 10.6851
400 1 H 17.9596 9.56363 8.30093
401 1 H 17.2494 10.9986 8.94461
402 1 H -0.233668 10.8732 9.06219
403 1 H 17.056 9.14175 10.5644
404 1 H 17.9978 10.5388 11.1739
405 1 H 0.240999 8.91538 11.5874
406 2 C 0.562971 12.3834 17.1856
407 2 C 0.250073 10.9183 16.6451
408 4 O -0.115488 10.9418 15.2883
409 1 H 1.3692 12.7491 16.6014
410 1 H -0.189994 13.164 17.0815
411 1 H 0.848043 12.2023 -0.969518
412 1 H -0.540876 10.4694 17.3434
413 1 H 1.14106 10.2548 16.8348
414 1 H -1.07505 11.0389 15.22
415 2 C 9.31634 6.1047 5.36183
416 2 C 9.39175 7.60288 5.6747
417 4 O 10.5763 8.28921 5.31954
418 1 H 10.2869 5.61554 5.59304
419 1 H 8.49387 5.66991 5.93992
420 1 H 9.18061 5.89596 4.27912
421 1 H 9.33188 7.72122 6.74779
422 1 H 8.49955 8.08815 5.27276
423 1 H 10.591 8.42557 4.3711
424 2 C 5.94769 13.1133 2.86631
425 2 C 4.89094 14.1224 3.23313
426 4 O 3.75337 13.613 3.92462
427 1 H 5.58468 12.3726 2.16523
428 1 H 6.81247 13.6377 2.46981
429 1 H 6.18804 12.5085 3.68849
430 1 H 4.52803 14.681 2.33952
431 1 H 5.37793 14.9058 3.93162
432 1 H 3.18579 12.9349 3.52158
433 2 C -1.10286 5.29508 12.0003
434 2 C -0.726144 4.56016 10.708
435 4 O 0.681654 4.4314 10.4958
436 1 H -0.354337 6.15842 11.988
437 1 H 17.0998 5.73898 11.8465
438 1 H -1.06167 4.74604 12.9335
439 1 H 17.9955 5.00308 9.8468
440 1 H -1.09201 3.62056 10.8889
441 1 H 1.1228 5.28472 10.2406
442 2 C 12.8081 3.49289 0.0632123
443 2 C 13.7233 4.07789 -1.01878
444 4 O 12.9428 4.05888 16.9613
445 1 H 12.5801 2.43736 -0.0576197
446 1 H 13.2366 3.68904 1.02766
447 1 H 11.8765 4.06357 -0.0281826
448 1 H 14.6302 3.54836 -1.18524
449 1 H 13.987 5.10318 -0.739156
450 1 H 13.3939 4.52274 16.2226
ITEM: TIMESTEP
7500
ITEM: NUMBER OF ATOMS
450
ITEM: BOX BOUNDS pp pp pp
-1.2279392039281625e+00 1.8152939203928170e+01
-1.2279392039281625e+00 1.8152939203928170e+01
-1.2279392039281625e+00 1.8152939203928170e+01
ITEM: ATOMS id type element x y z
1 2 C 12.0336 6.08679 2.02385
2 2 C 12.1361 7.55326 2.16097
3 4 O 10.7949 8.07842 2.44964
4 1 H 13.049 5.74157 1.79612
5 1 H 11.7897 5.6792 2.97642
6 1 H 11.318 5.78457 1.29486
7 1 H 12.4354 8.05358 1.24702
8 1 H 12.796 7.94292 2.94598
9 1 H 10.2602 8.20379 1.6547
10 2 C 14.1931 13.018 16.9503
11 2 C 14.7708 13.3517 -1.05776
12 4 O 15.8833 12.5301 -0.775536
13 1 H 13.6052 12.1198 17.008
14 1 H 13.5311 13.8028 16.5753
15 1 H 15.0094 12.8758 16.276
16 1 H 13.942 13.2463 -0.341612
17 1 H 15.0665 14.3668 -1.10061
18 1 H 15.7055 11.9588 -0.0345506
19 2 C 13.4049 1.59566 4.74121
20 2 C 13.3893 0.831471 6.03969
21 4 O 12.451 -0.224527 6.02528
22 1 H 12.7308 2.40898 4.72887
23 1 H 14.3762 2.02195 4.60172
24 1 H 13.0694 0.993305 3.8897
25 1 H 13.2189 1.326 6.9935
26 1 H 14.3493 0.324312 6.06353
27 1 H 11.6019 0.134606 5.72112
28 2 C 15.6602 7.03184 9.59782
29 2 C 16.6273 6.75662 8.38005
30 4 O 16.2756 5.72146 7.46306
31 1 H 16.1265 6.64932 10.4821
32 1 H 15.6018 8.10397 9.77577
33 1 H 14.7521 6.45766 9.53132
34 1 H 17.6195 6.59251 8.79919
35 1 H 16.6755 7.7058 7.78948
36 1 H 16.6089 4.92592 7.90429
37 2 C 2.0786 1.09015 11.0568
38 2 C 2.93212 2.24217 11.0615
39 4 O 3.46962 2.54833 10.0403
40 1 H 1.06012 1.34069 11.2969
41 1 H 2.20448 0.614062 10.093
42 1 H 2.49674 0.447187 11.8807
43 1 H 3.07763 2.79463 11.9287
44 1 H 17.1707 17.2813 -0.889642
45 1 H 9.92979 5.16664 8.90486
46 2 C 11.4774 13.5114 7.23789
47 2 C 10.8788 14.9563 7.10794
48 4 O 11.8999 15.9696 7.37946
49 1 H 10.7545 12.7245 7.04119
50 1 H 12.2991 13.4413 6.54183
51 1 H 11.7748 13.3109 8.25604
52 1 H 10.1203 15.0794 7.88225
53 1 H 10.3771 15.1535 6.16875
54 1 H 11.5154 16.7921 7.04927
55 2 C 14.7606 4.35141 12.7413
56 2 C 13.5412 5.27691 12.6495
57 4 O 13.1425 5.45232 14.072
58 1 H 14.6131 3.31141 12.962
59 1 H 15.3908 4.48831 11.7946
60 1 H 15.2831 4.95838 13.3929
61 1 H 12.7292 4.90587 12.0737
62 1 H 13.9221 6.19038 12.1444
63 1 H 12.1434 5.54094 13.9947
64 2 C 8.26655 9.4082 10.2529
65 2 C 9.63765 8.92456 9.75392
66 4 O 9.51916 7.52666 9.30972
67 1 H 8.03796 8.87743 11.1668
68 1 H 8.33439 10.5013 10.5029
69 1 H 7.49458 9.28915 9.50709
70 1 H 10.3378 8.95347 10.5737
71 1 H 10.008 9.53129 8.93241
72 1 H 10.4014 7.11747 9.20071
73 2 C 5.36676 2.50535 6.46557
74 2 C 6.40435 3.60756 6.20558
75 4 O 7.30671 3.74766 7.26178
76 1 H 4.63946 2.72012 7.19587
77 1 H 4.95289 2.17793 5.51676
78 1 H 5.7804 1.56512 6.82728
79 1 H 5.90361 4.58929 6.15445
80 1 H 6.98335 3.4858 5.3032
81 1 H 7.60841 4.65501 7.27895
82 2 C 3.6072 10.15 12.7141
83 2 C 2.63422 10.6031 13.789
84 4 O 1.39566 10.4489 13.1314
85 1 H 3.3958 9.0873 12.3732
86 1 H 3.63978 10.794 11.8558
87 1 H 4.64794 10.0602 13.0999
88 1 H 2.80459 11.6141 14.0973
89 1 H 2.67925 9.84278 14.6088
90 1 H 0.733496 10.6743 13.8196
91 2 C 9.90853 4.11208 15.0609
92 2 C 9.15663 5.52426 14.7176
93 4 O 9.9567 6.20858 13.6749
94 1 H 9.33846 3.68016 15.8507
95 1 H 9.93918 3.43881 14.1801
96 1 H 10.9187 4.32534 15.2666
97 1 H 9.18445 6.23254 15.6367
98 1 H 8.15072 5.44819 14.4963
99 1 H 9.54295 6.11971 12.8302
100 2 C 8.3247 13.7656 9.93216
101 2 C 8.01278 13.9267 11.3982
102 4 O 8.71731 13.0326 12.226
103 1 H 7.90816 12.8046 9.51273
104 1 H 7.78297 14.5078 9.35314
105 1 H 9.38366 13.8082 9.72909
106 1 H 6.95025 13.8536 11.5973
107 1 H 8.38041 14.9047 11.7001
108 1 H 8.61065 12.1291 11.9199
109 2 C 3.75413 15.2328 7.00094
110 2 C 4.93325 14.2392 7.12259
111 4 O 4.78157 12.9612 6.50594
112 1 H 3.46853 15.1657 5.94865
113 1 H 2.85323 15.0315 7.56518
114 1 H 3.93973 16.2465 7.27656
115 1 H 4.91885 14.0767 8.2024
116 1 H 5.8652 14.7174 6.81472
117 1 H 4.60642 13.1016 5.56894
118 2 C 2.3611 5.89785 7.47087
119 2 C 2.22629 7.18093 8.26729
120 4 O 1.29791 7.09997 9.31384
121 1 H 1.6311 5.80439 6.66898
122 1 H 3.35727 5.73991 7.07932
123 1 H 2.16861 5.06555 8.1562
124 1 H 2.04004 8.09608 7.66579
125 1 H 3.25033 7.38341 8.68054
126 1 H 1.05566 7.93906 9.74299
127 2 C 7.23367 -1.09253 18.0029
128 2 C 7.22947 -1.245 16.4813
129 4 O 7.52859 16.7945 16.0296
130 1 H 6.78656 -0.135822 -1.22402
131 1 H 6.59089 17.487 -0.943954
132 1 H 8.17882 18.3595 -0.901167
133 1 H 7.90607 -0.565563 15.9963
134 1 H 6.25616 -1.05019 16.0431
135 1 H 8.46245 16.6623 15.9183
136 2 C 6.74913 10.0505 4.29751
137 2 C 8.22052 10.5206 3.89513
138 4 O 8.39626 10.7478 2.50314
139 1 H 6.70865 8.99487 3.99666
140 1 H 6.72599 10.0469 5.38949
141 1 H 5.90534 10.6293 3.8554
142 1 H 8.93401 9.75833 4.20463
143 1 H 8.33728 11.4456 4.47774
144 1 H 8.76638 9.96653 2.08899
145 2 C 8.18391 -0.794078 3.77524
146 2 C 9.41164 17.7625 3.47513
147 4 O 10.3285 17.8139 4.55729
148 1 H 7.74612 -0.457213 2.83609
149 1 H 7.41217 18.004 4.28481
150 1 H 8.36177 0.140375 4.24955
151 1 H 9.83688 -1.23202 2.56692
152 1 H 9.21449 16.6749 3.33889
153 1 H 11.189 17.5817 4.22872
154 2 C -0.328269 0.872398 16.4528
155 2 C 0.340763 2.22324 16.3251
156 4 O 0.391453 2.66837 14.9508
157 1 H 0.0487471 0.181765 15.6999
158 1 H -0.118906 0.454585 17.4259
159 1 H 18.0023 1.10245 16.2568
160 1 H 1.35385 2.23474 16.7535
161 1 H -0.24583 2.95805 16.9125
162 1 H 0.583112 3.61114 14.9344
163 2 C 17.8095 10.6682 5.07463
164 2 C -0.102593 10.9069 4.97714
165 4 O 0.530744 10.3911 3.75632
166 1 H 17.5938 9.61383 5.28423
167 1 H 17.4319 11.313 5.89549
168 1 H 17.346 10.896 4.11185
169 1 H 0.396578 10.4074 5.83081
170 1 H 0.0799237 11.9679 4.92107
171 1 H 0.331448 9.44561 3.70317
172 2 C 10.7127 8.21692 17.6522
173 2 C 11.6477 7.04535 17.5084
174 4 O 10.9578 5.81761 17.7011
175 1 H 10.3785 8.47373 16.6251
176 1 H 9.81275 7.95572 -1.12985
177 1 H 11.2394 9.15993 17.9443
178 1 H 12.3947 7.09945 -1.08905
179 1 H 12.159 7.09569 16.5958
180 1 H 11.5326 5.12768 17.3669
181 2 C 1.91428 0.971353 7.14903
182 2 C 1.35449 2.31873 7.09551
183 4 O 0.496501 2.43157 8.16164
184 1 H 1.19464 0.154706 7.36496
185 1 H 2.56471 0.773606 6.3074
186 1 H 2.54452 1.01496 8.10254
187 1 H 0.832835 2.30108 6.12425
188 1 H 2.13318 3.08695 7.06587
189 1 H -0.325136 2.91686 8.00998
190 2 C 5.72669 -0.486561 10.2974
191 2 C 6.44672 -0.966871 11.5493
192 4 O 7.02431 17.0803 11.4415
193 1 H 5.68587 0.584756 10.2627
194 1 H 6.33701 -0.735841 9.41005
195 1 H 4.72374 -0.952217 10.2143
196 1 H 5.7631 -0.882994 12.3759
197 1 H 7.32524 -0.294277 11.7118
198 1 H 6.53064 16.5277 12.0628
199 2 C 12.3271 14.1825 13.5063
200 2 C 12.0011 12.7205 13.6877
201 4 O 11.3957 12.1471 12.5473
202 1 H 13.1665 14.4758 14.1179
203 1 H 12.6602 14.3639 12.4424
204 1 H 11.5342 14.9036 13.6644
205 1 H 11.2508 12.6044 14.4994
206 1 H 12.834 12.065 13.9184
207 1 H 10.6533 12.6146 12.2188
208 2 C 1.63934 9.93649 0.464287
209 2 C 2.51465 11.0198 0.960897
210 4 O 1.86422 12.0861 1.62707
211 1 H 1.32785 9.31272 1.30141
212 1 H 0.754248 10.3683 0.0325799
213 1 H 2.16036 9.27627 -0.228468
214 1 H 2.99025 11.5347 0.135019
215 1 H 3.27016 10.5502 1.58549
216 1 H 1.28726 11.669 2.28613
217 2 C 16.2104 10.4591 12.883
218 2 C 16.3402 9.92918 14.2407
219 4 O 16.3414 11.0681 15.079
220 1 H 15.3011 11.0023 12.6498
221 1 H 17.0261 11.1059 12.6685
222 1 H 16.2574 9.63939 12.1299
223 1 H 17.3286 9.34839 14.3262
224 1 H 15.5573 9.20092 14.5659
225 1 H 16.4277 10.8694 16.0075
226 2 C 15.541 1.8913 8.99521
227 2 C 16.8956 1.70236 8.23386
228 4 O 17.3329 2.94 7.46639
229 1 H 14.8219 2.53575 8.43467
230 1 H 15.1037 0.928826 9.12058
231 1 H 15.9121 2.33415 9.92555
232 1 H 16.8854 0.850438 7.60778
233 1 H 17.6239 1.65926 9.03134
234 1 H 16.9772 2.90423 6.55488
235 2 C 15.2783 -1.15476 0.216138
236 2 C 16.3884 -0.334416 -0.328242
237 4 O 17.5549 18.1465 -0.69862
238 1 H 14.9053 17.5413 -0.546209
239 1 H 15.6518 17.631 1.01834
240 1 H 14.5161 -0.481181 0.705995
241 1 H 16.7841 0.302703 0.533493
242 1 H 16.058 0.340369 -1.12342
243 1 H 0.862437 4.11719 10.2663
244 2 C 11.706 15.0223 3.02531
245 2 C 12.8044 15.0843 4.1055
246 4 O 12.8819 16.5307 4.45461
247 1 H 11.8792 14.1179 2.50929
248 1 H 10.7331 15.3023 3.47339
249 1 H 12.0951 15.9347 2.47116
250 1 H 13.719 14.8953 3.57122
251 1 H 12.901 14.5221 5.03772
252 1 H 12.9899 16.6192 5.43154
253 2 C -1.21063 5.95736 17.1812
254 2 C 17.6065 5.51996 15.8524
255 4 O 17.9672 6.52564 14.9162
256 1 H 17.9687 7.02893 17.3542
257 1 H 17.7378 5.41995 18.0553
258 1 H -0.100595 5.88924 17.0981
259 1 H 16.4782 5.46367 15.7787
260 1 H 17.9926 4.53707 15.5526
261 1 H 17.4087 6.34956 14.1567
262 2 C 0.89872 -1.06587 3.96762
263 2 C 2.01838 17.2355 3.73829
264 4 O 1.32862 16.005 3.58667
265 1 H 0.305879 -0.910814 3.10578
266 1 H 0.201874 17.8361 4.6876
267 1 H 1.20584 -0.114807 4.4394
268 1 H 2.65109 17.194 4.61398
269 1 H 2.71883 17.318 2.88355
270 1 H 1.97291 15.3582 3.42918
271 2 C 11.1973 0.323073 16.3763
272 2 C 12.7081 0.300269 15.9009
273 4 O 13.5269 1.43425 16.0827
274 1 H 10.6188 0.0730256 15.4997
275 1 H 11.0373 -0.320786 17.1987
276 1 H 10.8608 1.28993 16.72
277 1 H 12.6948 0.101745 14.8205
278 1 H 13.2543 -0.517573 16.3652
279 1 H 13.0494 2.24548 16.1215
280 2 C 9.71361 1.58682 6.09017
281 2 C 9.94962 1.62013 7.58349
282 4 O 10.1066 2.93022 8.11111
283 1 H 10.4946 2.0826 5.53167
284 1 H 9.63261 0.543202 5.80805
285 1 H 8.79225 2.09492 5.89174
286 1 H 10.837 1.05835 7.7666
287 1 H 9.15562 1.07979 8.15423
288 1 H 9.25096 3.27061 8.31814
289 2 C 6.55314 6.12037 10.6855
290 2 C 7.44681 4.92864 11.1115
291 4 O 8.78075 5.45853 11.3235
292 1 H 7.04816 6.86831 10.0131
293 1 H 5.73643 5.73119 10.0924
294 1 H 6.20916 6.64307 11.5511
295 1 H 7.43488 4.22192 10.2778
296 1 H 7.14604 4.4702 12.0766
297 1 H 8.95836 6.26802 10.7971
298 2 C 13.5466 10.3481 5.97908
299 2 C 13.4122 10.0734 7.44606
300 4 O 12.2826 9.15873 7.63886
301 1 H 14.1122 11.2754 5.80371
302 1 H 13.8847 9.43948 5.4604
303 1 H 12.5113 10.6136 5.66164
304 1 H 13.1727 11.0045 7.98392
305 1 H 14.3561 9.63176 7.87443
306 1 H 11.9071 8.94938 6.76989
307 2 C 11.593 9.12343 12.9393
308 2 C 11.9207 8.8129 14.3395
309 4 O 13.3461 8.49149 14.5156
310 1 H 11.8298 8.28235 12.3025
311 1 H 10.5279 9.28409 12.993
312 1 H 12.0718 10.088 12.6793
313 1 H 11.365 8.00189 14.8101
314 1 H 11.7081 9.75979 14.8704
315 1 H 13.3993 7.57506 14.2099
316 2 C 3.54268 10.7881 8.32923
317 2 C 4.91348 10.7466 8.93468
318 4 O 5.75896 10.6741 7.79546
319 1 H 2.71673 10.8462 9.02388
320 1 H 3.52697 11.5829 7.61297
321 1 H 3.41618 9.88481 7.72447
322 1 H 5.09741 9.87161 9.63758
323 1 H 5.10425 11.6755 9.51777
324 1 H 5.59985 11.4815 7.29178
325 2 C 17.2624 -0.189853 11.6286
326 2 C 17.9767 0.497853 12.8154
327 4 O -0.766963 1.72661 12.4254
328 1 H 18.094 -0.333216 10.9034
329 1 H 16.8582 -1.15998 11.8839
330 1 H 16.4643 0.445042 11.1851
331 1 H -0.67669 -0.168856 13.2136
332 1 H 17.2398 0.674994 13.6236
333 1 H -0.393469 2.01326 13.2661
334 2 C 2.62345 6.47259 13.3578
335 2 C 2.12152 6.08469 14.7099
336 4 O 0.907604 5.38249 14.532
337 1 H 3.57247 7.05165 13.3844
338 1 H 2.84422 5.54649 12.86
339 1 H 1.91475 7.03043 12.7679
340 1 H 2.04032 6.81474 15.4942
341 1 H 2.81589 5.32172 15.1173
342 1 H 0.182407 5.97604 14.6053
343 2 C 4.24559 14.5052 13.1371
344 2 C 5.03137 14.9268 14.383
345 4 O 5.71638 16.1675 13.996
346 1 H 3.22629 13.9339 13.4238
347 1 H 4.02362 15.4052 12.5438
348 1 H 4.88495 13.8648 12.4626
349 1 H 5.79894 14.1875 14.6951
350 1 H 4.45719 15.1422 15.253
351 1 H 6.37164 16.416 14.675
352 2 C 4.48548 1.64925 14.942
353 2 C 4.81505 3.10176 14.5547
354 4 O 4.63947 3.90274 15.7628
355 1 H 3.4187 1.52491 15.0684
356 1 H 4.78874 0.996713 14.1379
357 1 H 4.96726 1.43997 15.9087
358 1 H 4.21959 3.49613 13.7411
359 1 H 5.81382 3.25443 14.207
360 1 H 4.97832 4.79266 15.6732
361 2 C 14.8071 17.4658 7.71108
362 2 C 14.1905 17.9577 9.0222
363 4 O 13.4179 -0.24354 8.84332
364 1 H 15.0781 -1.10974 7.04583
365 1 H 15.7852 17.0018 7.87808
366 1 H 14.2035 16.7416 7.19913
367 1 H 14.9785 18.2345 9.71541
368 1 H 13.5448 17.1542 9.37548
369 1 H 12.6526 -0.495396 8.30596
370 2 C 13.087 4.69219 7.24581
371 2 C 12.3009 5.93087 7.34306
372 4 O 12.1629 6.42371 8.68076
373 1 H 12.8522 4.09425 8.12197
374 1 H 12.7511 4.12342 6.38384
375 1 H 14.161 4.76527 7.18084
376 1 H 11.2968 5.60901 7.11266
377 1 H 12.5454 6.79331 6.7148
378 1 H 12.3796 7.35297 8.62259
379 2 C 0.739392 5.80028 2.93614
380 2 C -0.243032 5.71034 4.11756
381 4 O -0.709398 7.04047 4.46152
382 1 H 1.18561 6.79775 2.83569
383 1 H 1.53355 5.0591 3.05984
384 1 H 0.23036 5.51613 2.01541
385 1 H 0.165746 5.15348 4.98469
386 1 H -1.0956 5.11984 3.79654
387 1 H -1.05391 6.98184 5.3466
388 2 C 16.4372 14.7309 12.9586
389 2 C 16.532 14.8813 11.4351
390 4 O 17.8944 15.3784 11.2869
391 1 H 16.5578 15.6956 13.4561
392 1 H 15.4209 14.4222 13.2426
393 1 H 17.1616 14.0183 13.3663
394 1 H 15.8525 15.6481 11.1052
395 1 H 16.3686 13.9699 10.8481
396 1 H 17.9849 15.7484 10.4058
397 2 C -1.05155 10.4265 9.22166
398 2 C 18.1141 9.72971 10.5359
399 4 O -0.128467 8.89873 10.9084
400 1 H -1.0565 9.7163 8.34582
401 1 H 17.4567 11.073 9.02746
402 1 H -0.124639 10.9957 9.29487
403 1 H 17.294 9.01996 10.5486
404 1 H 17.9375 10.472 11.3368
405 1 H 0.35736 9.35438 11.5714
406 2 C 0.728803 12.32 17.2871
407 2 C 0.38167 11.0258 16.6445
408 4 O -0.256762 11.2534 15.3567
409 1 H 1.14833 12.865 16.4048
410 1 H -0.200967 12.9087 17.5335
411 1 H 1.404 12.3663 -1.21919
412 1 H -0.233977 10.4755 17.2907
413 1 H 1.21634 10.3748 16.5288
414 1 H -1.10232 11.7018 15.4657
415 2 C 9.53994 6.045 4.83328
416 2 C 9.77336 7.32193 5.58025
417 4 O 10.9079 8.0869 5.15732
418 1 H 10.4449 5.4336 4.87303
419 1 H 8.71592 5.54692 5.28815
420 1 H 9.39529 6.26578 3.79298
421 1 H 9.83078 7.08606 6.64545
422 1 H 8.89274 7.98166 5.48749
423 1 H 10.8188 8.38847 4.22661
424 2 C 5.99884 13.0996 2.65495
425 2 C 4.9873 14.2323 2.92355
426 4 O 3.91985 13.6922 3.68606
427 1 H 5.55435 12.165 2.36594
428 1 H 6.69382 13.5123 1.86545
429 1 H 6.56627 12.8295 3.5724
430 1 H 4.60735 14.6379 2.01688
431 1 H 5.42052 15.0578 3.4571
432 1 H 3.45965 12.9775 3.23322
433 2 C 17.9645 5.424 12.2017
434 2 C -1.06463 4.53257 10.9785
435 4 O 0.406705 4.62671 10.9343
436 1 H -0.897147 6.34127 12.0641
437 1 H 16.927 5.65447 12.202
438 1 H -1.16892 4.85665 13.0537
439 1 H 17.8472 4.69803 10.0048
440 1 H 17.9731 3.53971 11.313
441 1 H 0.634862 5.55859 10.665
442 2 C 12.9309 3.82887 -0.128064
443 2 C 13.7894 3.9497 18.0761
444 4 O 13.0145 4.17363 16.8521
445 1 H 12.1737 3.03557 -0.242549
446 1 H 13.5642 3.68609 0.766635
447 1 H 12.4564 4.81965 0.00048546
448 1 H 14.3362 3.00583 17.8792
449 1 H 14.5302 4.73953 -1.18712
450 1 H 13.4644 4.69537 16.2203
ITEM: TIMESTEP
7600
ITEM: NUMBER OF ATOMS
450
ITEM: BOX BOUNDS pp pp pp
-1.3265809327840437e+00 1.8251580932784083e+01
-1.3265809327840437e+00 1.8251580932784083e+01
-1.3265809327840437e+00 1.8251580932784083e+01
ITEM: ATOMS id type element x y z
1 2 C 12.1607 6.09947 1.90893
2 2 C 12.1177 7.58043 2.33365
3 4 O 10.8452 8.16967 2.19924
4 1 H 13.1255 5.60615 2.12143
5 1 H 11.3709 5.57516 2.45861
6 1 H 11.9828 6.00013 0.859616
7 1 H 12.8099 8.25445 1.80913
8 1 H 12.2956 7.7007 3.39205
9 1 H 10.3386 8.02232 1.39134
10 2 C 14.0385 13.0767 17.1725
11 2 C 15.036 13.4637 18.2461
12 4 O 15.7811 12.3377 -0.910295
13 1 H 13.4683 12.206 17.487
14 1 H 13.3795 13.8996 16.9102
15 1 H 14.6029 12.8765 16.2326
16 1 H 14.5151 13.9314 -0.495174
17 1 H 15.6998 14.2446 17.7732
18 1 H 16.5796 12.5763 -0.428492
19 2 C 13.2699 1.76715 4.82216
20 2 C 13.5779 0.95317 6.05712
21 4 O 12.6889 -0.226085 6.13463
22 1 H 12.1593 1.82657 4.65469
23 1 H 13.5967 2.8281 4.88075
24 1 H 13.7717 1.36115 3.9466
25 1 H 13.445 1.45435 7.00506
26 1 H 14.6361 0.584303 5.97275
27 1 H 11.8111 0.0458789 5.79286
28 2 C 15.7479 6.7587 9.65214
29 2 C 16.538 6.96461 8.37421
30 4 O 16.4643 5.90101 7.38672
31 1 H 16.2588 6.36033 10.4844
32 1 H 15.3121 7.71657 9.94586
33 1 H 14.9588 6.01194 9.47084
34 1 H 17.5937 7.12951 8.58867
35 1 H 16.1138 7.84733 7.90752
36 1 H 17.0114 5.17447 7.72487
37 2 C 1.80832 0.71929 11.0998
38 2 C 2.7719 1.93283 11.0024
39 4 O 3.47515 2.31247 10.0938
40 1 H 0.817203 1.09932 11.3066
41 1 H 1.89094 0.156573 10.1784
42 1 H 2.07198 0.129062 11.9839
43 1 H 2.79136 2.58423 11.9592
44 1 H 17.3519 -1.2248 18.002
45 1 H 9.53619 4.79215 8.99029
46 2 C 12.1653 13.9175 7.67429
47 2 C 11.1707 14.9896 7.31121
48 4 O 11.9167 16.2273 7.32156
49 1 H 11.5931 12.9848 7.62654
50 1 H 12.9297 13.914 6.88521
51 1 H 12.5326 13.9677 8.6914
52 1 H 10.3981 15.0124 8.07866
53 1 H 10.6845 14.8179 6.34522
54 1 H 11.4404 16.9291 7.74578
55 2 C 14.254 4.28737 12.7056
56 2 C 12.9565 5.1107 12.6981
57 4 O 12.6679 5.60188 13.9281
58 1 H 14.2453 3.37203 13.348
59 1 H 14.5073 3.93873 11.7015
60 1 H 14.9967 5.02388 13.1025
61 1 H 12.03 4.5253 12.3521
62 1 H 13.0538 5.94632 11.9591
63 1 H 11.7513 5.87628 13.8978
64 2 C 8.21935 9.52488 10.0533
65 2 C 9.48582 9.04386 9.42838
66 4 O 9.4422 7.6404 9.33105
67 1 H 8.16237 9.00501 11.0084
68 1 H 8.25093 10.5914 10.2397
69 1 H 7.38936 9.31496 9.39185
70 1 H 10.3242 9.28771 10.1203
71 1 H 9.75576 9.52028 8.46644
72 1 H 10.3277 7.32759 9.09354
73 2 C 5.69854 2.11719 6.48681
74 2 C 6.45179 3.37951 6.24366
75 4 O 7.45833 3.67602 7.28553
76 1 H 5.42596 2.12667 7.57016
77 1 H 4.7779 2.05795 5.89614
78 1 H 6.17512 1.17077 6.25614
79 1 H 5.70886 4.18395 6.26519
80 1 H 7.00434 3.4814 5.29087
81 1 H 7.43812 2.9851 7.94318
82 2 C 3.77929 10.1723 12.7271
83 2 C 2.87352 10.7411 13.7452
84 4 O 1.46935 10.5748 13.3354
85 1 H 3.58528 9.0991 12.4837
86 1 H 3.7447 10.6397 11.7473
87 1 H 4.77283 10.1906 13.0076
88 1 H 2.9769 11.8484 13.7967
89 1 H 3.00905 10.3423 14.7675
90 1 H 0.858041 10.7018 14.0715
91 2 C 9.99986 4.15917 15.0935
92 2 C 9.47767 5.59261 14.9176
93 4 O 10.1133 6.2884 13.7304
94 1 H 9.57995 3.69243 15.9913
95 1 H 9.81464 3.45769 14.2757
96 1 H 11.0879 4.33205 15.016
97 1 H 9.87539 6.19769 15.737
98 1 H 8.34216 5.64401 14.6904
99 1 H 9.5113 6.05281 12.968
100 2 C 8.32797 13.6668 9.87315
101 2 C 7.97423 14.1469 11.2406
102 4 O 8.4669 13.2366 12.2222
103 1 H 7.89952 12.7097 9.59173
104 1 H 8.09644 14.3639 9.04806
105 1 H 9.42859 13.5573 9.7956
106 1 H 6.92045 14.343 11.4232
107 1 H 8.48284 15.1244 11.3591
108 1 H 7.81508 12.5459 12.2678
109 2 C 3.66406 15.113 6.84642
110 2 C 4.87074 14.239 6.93937
111 4 O 4.49918 12.9668 6.37437
112 1 H 3.34746 15.2585 5.83636
113 1 H 2.79576 14.6018 7.28391
114 1 H 3.75964 16.0638 7.44732
115 1 H 5.07302 14.1868 7.97914
116 1 H 5.75661 14.6536 6.4345
117 1 H 4.31396 13.3063 5.47635
118 2 C 2.09304 5.89235 7.49777
119 2 C 1.94982 7.04132 8.49246
120 4 O 0.881641 6.70197 9.33544
121 1 H 1.14113 5.74622 7.04079
122 1 H 2.91357 6.10209 6.78984
123 1 H 2.27165 4.97059 8.022
124 1 H 1.73175 7.95356 7.96639
125 1 H 2.90787 7.15848 8.96694
126 1 H 0.741563 7.37499 10.0233
127 2 C 7.13186 -1.21852 17.848
128 2 C 7.03258 17.8211 16.4686
129 4 O 7.7374 16.5717 16.4874
130 1 H 6.52318 -0.289417 18.0323
131 1 H 6.86591 17.5279 -1.09219
132 1 H 8.16904 -0.933439 18.0701
133 1 H 7.48904 -1.11366 15.6959
134 1 H 5.98871 17.561 16.241
135 1 H 8.58514 16.623 16.0559
136 2 C 6.8946 10.0671 4.35005
137 2 C 8.11181 10.7608 3.89733
138 4 O 8.19802 10.669 2.46089
139 1 H 6.88252 9.11427 3.8022
140 1 H 6.8777 9.98504 5.43201
141 1 H 5.98466 10.4945 3.93104
142 1 H 9.0244 10.3588 4.31216
143 1 H 7.94783 11.7598 4.24683
144 1 H 8.98713 10.141 2.29542
145 2 C 8.24757 -0.867774 3.62721
146 2 C 9.21508 17.56 3.36531
147 4 O 10.2399 17.7055 4.42438
148 1 H 7.21699 -0.925405 3.3167
149 1 H 8.15228 -0.745858 4.71016
150 1 H 8.64916 0.0517277 3.10975
151 1 H 9.67979 17.6451 2.34676
152 1 H 8.86039 16.59 3.60488
153 1 H 11.0278 17.1846 4.25434
154 2 C -0.380044 1.07232 16.4775
155 2 C 0.49876 2.3031 16.3195
156 4 O 0.279942 2.71125 14.9665
157 1 H 0.0221161 0.247909 15.9047
158 1 H -0.384596 0.791284 17.5324
159 1 H 18.2063 1.36759 16.146
160 1 H 1.56188 2.12106 16.4609
161 1 H 0.160013 3.13023 16.9307
162 1 H 0.606636 3.60538 14.7575
163 2 C 17.9628 10.5363 4.67603
164 2 C -0.154191 11.0018 4.90269
165 4 O 0.72477 10.536 3.91143
166 1 H 17.9207 9.45973 4.44451
167 1 H 17.4719 10.8082 5.59387
168 1 H 17.4588 11.065 3.86456
169 1 H 0.17701 10.5752 5.85161
170 1 H -0.0949203 12.0892 4.92671
171 1 H 0.534189 9.59488 3.86059
172 2 C 10.3753 8.17229 17.7535
173 2 C 11.3759 6.97701 17.9011
174 4 O 10.6234 5.82936 17.5736
175 1 H 9.8617 7.90462 16.8112
176 1 H 9.6747 8.28817 -0.995624
177 1 H 10.7858 9.15311 17.7372
178 1 H 11.8415 6.85688 -0.705649
179 1 H 12.211 7.07499 17.1096
180 1 H 11.2155 5.15766 17.156
181 2 C 1.73453 0.6047 7.27846
182 2 C 1.25491 2.14217 7.05296
183 4 O 0.606564 2.83763 8.11087
184 1 H 1.02193 -0.168062 7.44742
185 1 H 2.44842 0.360075 6.52145
186 1 H 2.22178 0.610008 8.23122
187 1 H 0.66732 2.04663 6.16714
188 1 H 2.16186 2.72533 6.87116
189 1 H -0.327781 2.97758 8.04093
190 2 C 5.55415 -0.495993 10.3386
191 2 C 6.61142 -0.853638 11.3791
192 4 O 6.61475 17.2782 11.4011
193 1 H 5.20737 0.551675 10.2787
194 1 H 5.9242 -0.858397 9.37769
195 1 H 4.71418 -1.14035 10.5466
196 1 H 6.33449 -0.457588 12.3737
197 1 H 7.5979 -0.567737 11.1114
198 1 H 6.29244 16.9594 12.2547
199 2 C 12.3898 14.3718 13.8223
200 2 C 11.9612 12.9468 13.8632
201 4 O 11.4515 12.4861 12.5988
202 1 H 12.2831 14.926 14.7831
203 1 H 13.4072 14.5176 13.519
204 1 H 11.8521 14.9166 13.073
205 1 H 11.1566 12.859 14.5552
206 1 H 12.7118 12.1597 14.1156
207 1 H 10.6037 12.9176 12.351
208 2 C 1.22444 9.94242 0.313862
209 2 C 2.41604 10.8366 0.897823
210 4 O 1.92751 11.8044 1.78194
211 1 H 0.788842 9.33754 1.12999
212 1 H 0.467609 10.6052 -0.116101
213 1 H 1.5173 9.16065 -0.383778
214 1 H 2.93194 11.3838 0.108176
215 1 H 3.13846 10.1646 1.40647
216 1 H 1.38893 11.2514 2.37642
217 2 C 16.1627 10.2151 13.0618
218 2 C 16.5436 10.041 14.5258
219 4 O 16.4083 11.3345 15.2191
220 1 H 15.1197 10.474 12.9051
221 1 H 16.7136 11.1089 12.6623
222 1 H 16.593 9.43238 12.4161
223 1 H 17.5757 9.7561 14.5941
224 1 H 15.954 9.32219 15.0943
225 1 H 15.7793 11.2704 15.9567
226 2 C 15.6838 1.80953 8.97959
227 2 C 16.9446 1.70913 8.1449
228 4 O 17.3766 2.88016 7.49673
229 1 H 14.7839 1.97244 8.39675
230 1 H 15.6581 0.92749 9.60449
231 1 H 15.8581 2.64998 9.68303
232 1 H 16.7982 0.903117 7.37979
233 1 H 17.7358 1.24466 8.80631
234 1 H 16.5726 3.27601 7.12202
235 2 C 15.263 -1.05718 0.140167
236 2 C 16.4986 -0.210778 -0.18793
237 4 O 17.5337 -1.02289 -0.6361
238 1 H 15.0983 17.7959 -0.664247
239 1 H 15.2709 17.8058 1.03895
240 1 H 14.4931 -0.376318 0.282825
241 1 H 16.7937 0.280721 0.691792
242 1 H 16.1418 0.515625 -0.942294
243 1 H 0.48833 3.76044 10.2297
244 2 C 11.8432 15.1125 2.84669
245 2 C 12.8346 15.3213 3.97565
246 4 O 13.1518 16.659 4.17528
247 1 H 11.762 14.0161 3.0782
248 1 H 11.0157 15.6458 3.19103
249 1 H 12.2407 15.1248 1.88599
250 1 H 13.7033 14.5298 3.84278
251 1 H 12.3286 14.9614 4.86513
252 1 H 13.1268 16.8184 5.12303
253 2 C 18.235 5.96348 17.2105
254 2 C 17.451 5.71673 15.9299
255 4 O 17.9267 6.69172 14.9123
256 1 H 17.8142 6.86869 17.5931
257 1 H 17.9654 5.14115 17.8813
258 1 H -0.257986 6.01921 17.106
259 1 H 16.3911 5.72091 15.9785
260 1 H 17.8034 4.78512 15.5245
261 1 H 17.4056 6.63591 14.1064
262 2 C 0.805965 -1.14862 3.99452
263 2 C 1.85862 17.4196 3.78668
264 4 O 1.31633 16.1809 3.48127
265 1 H 0.14553 -1.11892 3.10425
266 1 H 0.28734 -1.22402 4.94197
267 1 H 1.33274 -0.181357 4.07199
268 1 H 2.48729 17.3981 4.70549
269 1 H 2.57384 17.6504 3.01337
270 1 H 2.00509 15.5447 3.6662
271 2 C 11.366 0.479828 16.5499
272 2 C 12.7049 0.196936 15.9304
273 4 O 13.6318 1.22235 16.2293
274 1 H 10.4762 0.0629378 16.0248
275 1 H 11.3014 0.0458099 17.5846
276 1 H 11.2874 1.58986 16.5889
277 1 H 12.6088 0.0530056 14.8432
278 1 H 13.0945 -0.732448 16.3279
279 1 H 13.169 2.14098 16.1782
280 2 C 9.81665 1.59102 6.23018
281 2 C 9.81616 1.44532 7.7559
282 4 O 10.002 2.76441 8.2511
283 1 H 10.7046 2.18463 6.01671
284 1 H 9.85106 0.633714 5.69446
285 1 H 8.96264 2.20582 5.90814
286 1 H 10.7155 0.845042 7.97951
287 1 H 8.94358 0.952336 8.17471
288 1 H 9.32286 3.29226 7.78045
289 2 C 6.47289 5.87042 10.594
290 2 C 7.41895 4.83777 11.11
291 4 O 8.66856 5.47744 11.3864
292 1 H 6.60621 5.95929 9.50871
293 1 H 5.41993 5.6168 10.759
294 1 H 6.6552 6.84378 11.0325
295 1 H 7.51725 4.09276 10.3106
296 1 H 7.20775 4.24829 11.9916
297 1 H 8.79308 6.24144 10.7924
298 2 C 13.99 10.2528 6.16851
299 2 C 13.5984 9.72729 7.59221
300 4 O 12.504 8.9063 7.67235
301 1 H 14.3775 11.2565 6.26411
302 1 H 14.625 9.4934 5.751
303 1 H 13.1462 10.3356 5.51971
304 1 H 13.3131 10.6047 8.13634
305 1 H 14.462 9.26585 8.02568
306 1 H 12.0237 8.79897 6.84386
307 2 C 11.4571 8.76329 13.0555
308 2 C 12.0208 8.69711 14.5353
309 4 O 13.3449 8.30236 14.6854
310 1 H 11.5168 7.79196 12.6306
311 1 H 10.4354 9.07585 13.0551
312 1 H 12.1323 9.46646 12.5022
313 1 H 11.4949 8.02346 15.2245
314 1 H 11.9893 9.7062 14.8884
315 1 H 13.4702 7.3918 14.4399
316 2 C 3.3248 10.3474 8.31095
317 2 C 4.73958 10.7339 8.81183
318 4 O 5.9049 10.4902 8.05597
319 1 H 2.58133 10.4903 9.11855
320 1 H 2.9512 10.9694 7.49433
321 1 H 3.27833 9.27902 7.99702
322 1 H 4.88778 10.2099 9.7114
323 1 H 4.67772 11.7897 9.01074
324 1 H 6.04431 11.19 7.41613
325 2 C 17.4426 -0.118001 11.5982
326 2 C 17.9683 0.40425 12.9395
327 4 O -0.988 1.64463 12.7145
328 1 H 18.2498 0.0279454 10.8903
329 1 H 17.1451 -1.15645 11.6518
330 1 H 16.6165 0.435566 11.231
331 1 H -0.751699 -0.299511 13.18
332 1 H 17.3023 0.368386 13.7799
333 1 H -0.6463 1.9582 13.585
334 2 C 2.46008 6.41911 13.2329
335 2 C 2.22211 5.84763 14.6412
336 4 O 0.929693 5.24095 14.7614
337 1 H 3.46572 6.78675 13.0477
338 1 H 2.23745 5.64106 12.5213
339 1 H 1.81868 7.28319 12.9934
340 1 H 2.43675 6.52442 15.4995
341 1 H 2.92054 5.05908 14.8089
342 1 H 0.156195 5.87404 14.6994
343 2 C 4.28035 14.8701 13.035
344 2 C 4.84317 15.1125 14.4324
345 4 O 5.61304 16.3077 14.4143
346 1 H 3.95976 13.8762 12.9077
347 1 H 3.49395 15.5293 13.0011
348 1 H 4.95829 15.0308 12.1897
349 1 H 5.45961 14.3135 14.8048
350 1 H 3.9982 15.2489 15.1763
351 1 H 6.356 16.1903 15.0058
352 2 C 4.33126 1.50509 15.2795
353 2 C 5.05825 2.80123 15.1302
354 4 O 4.41279 3.74749 15.937
355 1 H 3.25148 1.67259 15.1806
356 1 H 4.65155 0.797418 14.5225
357 1 H 4.45767 1.15545 16.3091
358 1 H 4.97934 3.13882 14.0816
359 1 H 6.14832 2.7842 15.4151
360 1 H 4.96078 4.54816 15.9882
361 2 C 14.8857 17.5985 7.75848
362 2 C 14.255 18.077 9.0391
363 4 O 13.3387 -0.398911 8.81424
364 1 H 15.8886 17.9984 7.61723
365 1 H 14.9728 16.5078 7.62674
366 1 H 14.2424 17.8802 6.94254
367 1 H 14.9785 -1.13598 9.75566
368 1 H 13.7161 17.243 9.55318
369 1 H 12.8691 -0.618785 8.0231
370 2 C 13.0006 4.35502 7.37767
371 2 C 11.9226 5.41509 7.45472
372 4 O 12.1611 6.35349 8.50142
373 1 H 12.932 3.62951 8.19734
374 1 H 13.1105 3.78637 6.44875
375 1 H 13.9896 4.86531 7.40006
376 1 H 10.9447 4.97518 7.57202
377 1 H 11.9028 6.00473 6.55317
378 1 H 12.5032 7.18819 8.10234
379 2 C 0.485692 5.89777 2.58266
380 2 C 0.0129384 5.83792 4.03777
381 4 O -0.241295 7.16961 4.48264
382 1 H 1.50032 6.25734 2.65283
383 1 H 0.438418 4.93671 2.034
384 1 H -0.109987 6.58093 2.00192
385 1 H 0.817775 5.35766 4.58571
386 1 H -0.863023 5.20733 4.15922
387 1 H -1.12133 7.13155 4.85665
388 2 C 16.5051 14.5161 13.0006
389 2 C 16.6648 15.1147 11.6066
390 4 O 17.8274 15.9098 11.5119
391 1 H 16.3611 15.3145 13.7252
392 1 H 15.6497 13.8175 13.029
393 1 H 17.3939 14.0117 13.3714
394 1 H 15.759 15.7308 11.3505
395 1 H 16.709 14.3307 10.845
396 1 H 17.884 16.015 10.5326
397 2 C -0.631317 10.3387 9.08257
398 2 C -0.849072 9.83892 10.5394
399 4 O 0.282321 9.07941 11.0162
400 1 H -0.265044 9.51862 8.51488
401 1 H 17.9434 10.5766 8.65365
402 1 H 0.082157 11.1332 8.93259
403 1 H 17.8953 9.17637 10.6774
404 1 H -0.991485 10.6644 11.2246
405 1 H 0.838014 9.74105 11.5033
406 2 C 0.779614 12.4927 17.3237
407 2 C 0.41261 11.2274 16.5281
408 4 O -0.250122 11.4613 15.3706
409 1 H 1.53888 13.1714 16.9266
410 1 H -0.119927 12.9676 17.5677
411 1 H 1.18267 12.2235 -1.31647
412 1 H -0.163072 10.5686 17.295
413 1 H 1.34746 10.7363 16.2656
414 1 H -1.21305 11.5648 15.4689
415 2 C 9.78477 6.04075 4.48439
416 2 C 9.89829 7.18249 5.58178
417 4 O 11.1301 7.88141 5.28822
418 1 H 10.621 5.35828 4.56227
419 1 H 8.84559 5.46361 4.66913
420 1 H 9.73411 6.56432 3.53402
421 1 H 9.90043 6.70783 6.56235
422 1 H 9.11261 7.91909 5.53517
423 1 H 11.0465 8.44844 4.51835
424 2 C 6.10372 13.3023 2.38374
425 2 C 4.92422 14.2503 2.529
426 4 O 3.86472 13.7876 3.43755
427 1 H 5.73134 12.4039 1.87586
428 1 H 6.89087 13.7464 1.84598
429 1 H 6.49258 13.1555 3.41347
430 1 H 4.49001 14.4319 1.5065
431 1 H 5.23001 15.2199 2.92252
432 1 H 3.30689 13.1675 2.94651
433 2 C 18.0781 5.56235 12.1933
434 2 C -1.13516 4.72631 10.9931
435 4 O 0.250315 4.62931 10.6771
436 1 H -1.2825 6.60069 11.896
437 1 H 16.9991 5.43269 12.3538
438 1 H -0.857617 5.16599 13.0454
439 1 H 17.9731 5.07165 10.0577
440 1 H 18.0964 3.63645 11.1776
441 1 H 0.501446 5.39064 10.0746
442 2 C 13.1906 3.63877 -0.634635
443 2 C 14.0359 3.85642 17.6396
444 4 O 13.1138 4.14634 16.6303
445 1 H 12.8158 2.65198 -0.713649
446 1 H 13.7898 3.72151 0.258606
447 1 H 12.3939 4.36573 -0.550366
448 1 H 14.5562 2.92016 17.3533
449 1 H 14.7354 4.68832 17.6649
450 1 H 13.5068 4.4028 15.7605
ITEM: TIMESTEP
7700
ITEM: NUMBER OF ATOMS
450
ITEM: BOX BOUNDS pp pp pp
-1.4134175996506215e+00 1.8338417599650672e+01
-1.4134175996506215e+00 1.8338417599650672e+01
-1.4134175996506215e+00 1.8338417599650672e+01
ITEM: ATOMS id type element x y z
1 2 C 12.2788 6.125 1.88254
2 2 C 12.2934 7.59595 2.27045
3 4 O 11.0024 8.2631 1.9334
4 1 H 13.2885 5.83417 2.12017
5 1 H 11.6039 5.54285 2.53974
6 1 H 12.1655 5.92348 0.800604
7 1 H 13.0562 8.15238 1.73141
8 1 H 12.4839 7.67977 3.33261
9 1 H 10.6343 7.84881 1.15469
10 2 C 13.8712 13.2889 17.4349
11 2 C 15.2182 13.4844 18.0924
12 4 O 15.7459 12.2169 -1.16267
13 1 H 13.4241 12.3664 17.8269
14 1 H 13.2322 14.1337 17.6481
15 1 H 13.9272 13.1623 16.3381
16 1 H 15.2459 14.2329 -0.851199
17 1 H 15.971 13.8391 17.3668
18 1 H 16.7027 12.15 -1.26965
19 2 C 13.3403 1.72792 4.54036
20 2 C 13.3844 1.09434 5.95684
21 4 O 13.0453 -0.259492 6.03737
22 1 H 12.3107 1.94822 4.28538
23 1 H 13.9235 2.64314 4.49899
24 1 H 13.8767 1.11301 3.86311
25 1 H 12.7304 1.6386 6.60449
26 1 H 14.3521 1.22615 6.40086
27 1 H 12.1862 -0.463597 5.66285
28 2 C 15.5999 6.63455 9.46077
29 2 C 16.2989 7.1608 8.1954
30 4 O 16.9504 6.09193 7.5741
31 1 H 16.1487 5.72945 9.81196
32 1 H 15.4963 7.34839 10.2758
33 1 H 14.5301 6.39192 9.2904
34 1 H 17.0374 7.96773 8.37874
35 1 H 15.5902 7.57397 7.5185
36 1 H 17.3186 5.50783 8.2375
37 2 C 1.66551 0.467264 11.2125
38 2 C 2.51714 1.73749 11.0038
39 4 O 3.3891 2.0291 10.1934
40 1 H 0.682064 1.00764 11.311
41 1 H 1.66687 -0.307048 10.4563
42 1 H 1.81004 0.142564 12.2117
43 1 H 2.17981 2.53191 11.7254
44 1 H 17.9494 -0.314905 -1.31614
45 1 H 8.9119 5.12493 8.60298
46 2 C 12.7297 14.3251 8.11759
47 2 C 11.5896 15.1215 7.6393
48 4 O 11.9571 16.4102 7.13998
49 1 H 12.4203 13.2989 8.34896
50 1 H 13.4806 14.3006 7.33521
51 1 H 13.2259 14.8718 8.93611
52 1 H 10.8318 15.2152 8.42022
53 1 H 11.2034 14.6141 6.7497
54 1 H 11.2769 17.0546 7.30037
55 2 C 13.7683 4.09347 12.6169
56 2 C 12.5311 4.90324 12.6303
57 4 O 12.4639 5.73718 13.8663
58 1 H 13.5809 3.46803 13.4764
59 1 H 13.6117 3.38464 11.8682
60 1 H 14.7528 4.51125 12.7973
61 1 H 11.6948 4.26149 12.6247
62 1 H 12.4383 5.64853 11.8684
63 1 H 11.5546 5.92221 14.0138
64 2 C 8.2706 9.49033 9.96611
65 2 C 9.47861 8.91506 9.1837
66 4 O 9.52797 7.51754 9.33379
67 1 H 8.33287 9.29913 11.0544
68 1 H 8.29324 10.5356 9.75745
69 1 H 7.31874 9.11162 9.56839
70 1 H 10.4057 9.35328 9.50017
71 1 H 9.37576 9.15562 8.13536
72 1 H 10.3195 7.11946 8.90616
73 2 C 5.98769 1.78211 6.5353
74 2 C 6.41192 3.24002 6.41884
75 4 O 7.4072 3.51316 7.41468
76 1 H 5.39747 1.62906 7.45192
77 1 H 5.2631 1.5687 5.75449
78 1 H 6.84088 1.08751 6.46706
79 1 H 5.53267 3.87074 6.46071
80 1 H 6.89575 3.48374 5.4774
81 1 H 7.37481 2.84679 8.11346
82 2 C 3.8916 10.2329 12.6631
83 2 C 2.89234 10.7761 13.6334
84 4 O 1.52682 10.6341 13.3088
85 1 H 3.9763 9.20849 12.4713
86 1 H 3.74512 10.6267 11.6304
87 1 H 4.94547 10.6174 12.8896
88 1 H 3.03035 11.8269 13.7565
89 1 H 3.03413 10.4986 14.6687
90 1 H 0.918763 10.7029 14.0577
91 2 C 9.82289 4.12104 15.0113
92 2 C 9.42043 5.55044 14.8246
93 4 O 9.87477 6.09528 13.7536
94 1 H 9.23743 3.79495 15.904
95 1 H 9.49605 3.50325 14.1964
96 1 H 10.9205 4.03204 15.2395
97 1 H 9.68358 6.13513 15.6498
98 1 H 8.37613 5.56284 14.8197
99 1 H 9.28931 5.88113 13.0478
100 2 C 8.30641 13.5959 9.77225
101 2 C 8.05212 14.2978 11.0864
102 4 O 8.24459 13.4802 12.2857
103 1 H 7.57927 12.8472 9.56725
104 1 H 8.36709 14.2576 8.91971
105 1 H 9.25031 13.0632 9.68801
106 1 H 7.09639 14.8297 11.1455
107 1 H 8.76839 15.1076 11.1405
108 1 H 7.89846 12.6111 12.0831
109 2 C 3.53029 15.0829 6.76519
110 2 C 4.71438 14.1183 6.61184
111 4 O 4.46676 12.9029 6.01799
112 1 H 3.11526 15.405 5.77148
113 1 H 2.67769 14.5888 7.22774
114 1 H 3.88909 16.0063 7.21605
115 1 H 5.03386 13.9393 7.67981
116 1 H 5.5836 14.6468 6.21074
117 1 H 4.16743 13.144 5.13047
118 2 C 1.78128 5.8257 7.61665
119 2 C 1.64706 6.9716 8.63731
120 4 O 0.419458 6.84309 9.44247
121 1 H 0.765439 5.4406 7.40142
122 1 H 2.22414 6.28026 6.72007
123 1 H 2.35079 4.97367 8.00693
124 1 H 1.58862 7.88501 8.04358
125 1 H 2.58072 6.93593 9.19885
126 1 H 0.533254 7.49402 10.1515
127 2 C 7.21742 -1.14426 17.9328
128 2 C 6.94947 17.6355 16.7563
129 4 O 7.73646 16.438 16.614
130 1 H 6.64591 -0.245672 17.7392
131 1 H 6.87433 18.229 -0.895201
132 1 H 8.29829 -0.917493 18.004
133 1 H 7.12658 18.206 15.8446
134 1 H 5.90023 17.3555 16.7975
135 1 H 8.47387 16.4483 17.2359
136 2 C 6.93656 10.0201 4.51258
137 2 C 8.10115 10.8514 3.84857
138 4 O 8.17323 10.6109 2.47986
139 1 H 7.02039 8.94551 4.35838
140 1 H 6.86019 10.2608 5.58061
141 1 H 6.00969 10.2739 4.0414
142 1 H 9.11253 10.7613 4.33883
143 1 H 7.79499 11.8638 4.15916
144 1 H 9.05689 10.3062 2.2536
145 2 C 8.24617 -0.9987 3.36077
146 2 C 9.13739 17.5571 3.59138
147 4 O 10.2556 17.7696 4.3957
148 1 H 7.32685 -1.41094 2.91812
149 1 H 7.87491 -0.572971 4.27211
150 1 H 8.6724 -0.188428 2.7701
151 1 H 9.44347 17.1887 2.62303
152 1 H 8.67483 16.6967 4.08542
153 1 H 11.0459 17.3008 4.01724
154 2 C -0.42316 1.18529 16.6687
155 2 C 0.408663 2.37403 16.2434
156 4 O 0.30092 2.61878 14.8577
157 1 H -0.16081 0.354486 16.0053
158 1 H -0.144717 0.949126 17.703
159 1 H 18.2582 1.38458 16.6751
160 1 H 1.46763 2.17876 16.4459
161 1 H 0.172464 3.31388 16.7444
162 1 H 0.607124 3.51679 14.6693
163 2 C 18.1552 10.5204 4.33908
164 2 C -0.252592 10.9778 4.87618
165 4 O 0.830097 10.4121 4.14403
166 1 H -1.41142 9.45631 4.32572
167 1 H 17.284 10.7463 4.93014
168 1 H 17.9974 10.8748 3.32663
169 1 H -0.168715 10.8439 5.95034
170 1 H -0.0763078 12.0531 4.75983
171 1 H 0.78567 9.45158 4.16529
172 2 C 10.0418 8.10719 17.9676
173 2 C 11.1324 7.14716 17.8907
174 4 O 10.6319 5.76783 17.9299
175 1 H 9.43685 8.19675 17.0815
176 1 H 9.38934 7.89758 -0.94264
177 1 H 10.3815 9.03662 -1.32259
178 1 H 11.9076 7.3229 -1.09008
179 1 H 11.6605 7.25069 16.9923
180 1 H 11.2456 5.23347 17.4522
181 2 C 1.40646 0.694908 7.51434
182 2 C 1.27685 2.10196 6.99955
183 4 O 0.670062 2.89297 8.10031
184 1 H 0.598004 0.506087 8.24032
185 1 H 1.39047 -0.079058 6.6777
186 1 H 2.34999 0.546852 8.02607
187 1 H 0.752347 2.0279 6.01299
188 1 H 2.26951 2.52402 6.84321
189 1 H -0.294171 3.01758 7.99083
190 2 C 5.38761 -0.42665 10.3326
191 2 C 6.55685 -0.992283 11.1517
192 4 O 6.34408 17.4765 11.6609
193 1 H 5.77258 0.523086 9.93768
194 1 H 5.06601 -1.07252 9.54529
195 1 H 4.53415 -0.0919215 10.9009
196 1 H 6.75216 -0.278498 11.9622
197 1 H 7.50973 -1.00863 10.5731
198 1 H 6.19239 17.5356 12.6126
199 2 C 12.4241 14.5517 14.0944
200 2 C 11.7671 13.1718 14.0123
201 4 O 11.5171 12.8368 12.6405
202 1 H 12.4898 14.8432 15.1451
203 1 H 13.4578 14.5942 13.7728
204 1 H 11.8613 15.3723 13.6156
205 1 H 10.8207 13.1665 14.6617
206 1 H 12.3729 12.3796 14.3765
207 1 H 10.575 13.0221 12.437
208 2 C 0.946406 10.0638 0.43604
209 2 C 2.26419 10.5897 0.864638
210 4 O 2.20186 11.5917 1.95101
211 1 H 0.52244 9.48402 1.24189
212 1 H 0.260708 10.8534 0.122978
213 1 H 1.10665 9.35037 -0.372482
214 1 H 2.73509 11.0617 0.00306048
215 1 H 2.90368 9.76377 1.13928
216 1 H 1.62555 11.1726 2.61093
217 2 C 15.9307 10.0705 13.4687
218 2 C 16.6072 10.1269 14.8149
219 4 O 16.6302 11.4418 15.4066
220 1 H 14.875 10.2866 13.6002
221 1 H 16.3522 10.7952 12.7705
222 1 H 16.0917 9.10156 13.0829
223 1 H 17.6243 9.76184 14.7148
224 1 H 16.0837 9.49503 15.4942
225 1 H 16.1273 11.3855 16.241
226 2 C 15.851 2.02439 9.01907
227 2 C 16.9901 1.71922 8.10058
228 4 O 17.4146 2.91239 7.50511
229 1 H 15.1407 2.3863 8.32813
230 1 H 15.4799 1.16119 9.6081
231 1 H 15.9638 2.86449 9.67029
232 1 H 16.7137 0.985424 7.31577
233 1 H 17.8215 1.22843 8.58633
234 1 H 16.9327 3.09414 6.71079
235 2 C 15.1787 -0.8851 0.0563037
236 2 C 16.4536 -0.0924325 -0.145389
237 4 O 17.5926 -0.812144 -0.552631
238 1 H 14.8556 -1.15361 -0.966428
239 1 H 15.4221 17.9219 0.529416
240 1 H 14.3001 -0.428058 0.593585
241 1 H 16.6841 0.480458 0.78818
242 1 H 16.1858 0.613105 -0.908163
243 1 H 0.317364 3.36517 9.80274
244 2 C 12.1219 14.9536 2.61902
245 2 C 12.9431 15.4435 3.91481
246 4 O 13.0468 16.8759 3.89144
247 1 H 11.8244 13.896 2.64674
248 1 H 11.2537 15.5289 2.94868
249 1 H 12.7283 14.9661 1.70453
250 1 H 13.8925 15.0022 4.07847
251 1 H 12.1457 15.194 4.71312
252 1 H 13.4423 17.0935 4.71878
253 2 C 18.1682 5.88554 17.2803
254 2 C 17.4013 5.97566 15.9788
255 4 O 17.9046 7.03071 15.1953
256 1 H 18.002 6.86038 17.7457
257 1 H 17.7035 5.0859 17.8343
258 1 H -0.556469 5.60135 17.1773
259 1 H 16.2956 6.08918 16.0847
260 1 H 17.5565 5.04451 15.3861
261 1 H 17.7189 6.94987 14.2604
262 2 C 0.676715 -1.21544 3.99749
263 2 C 1.90085 17.6199 3.8363
264 4 O 1.36773 16.2403 3.49271
265 1 H 0.205814 -1.19251 3.00668
266 1 H 0.0228585 18.3031 4.81559
267 1 H 1.05202 -0.227876 4.11381
268 1 H 2.4785 17.6151 4.75521
269 1 H 2.49339 17.8927 2.93948
270 1 H 2.16816 15.6534 3.32171
271 2 C 11.4089 0.5972 16.7705
272 2 C 12.6261 0.24261 15.8594
273 4 O 13.7801 0.974329 16.3483
274 1 H 10.8506 -0.258768 17.0767
275 1 H 11.7834 0.910764 17.735
276 1 H 10.7652 1.32576 16.3512
277 1 H 12.4312 0.472175 14.8265
278 1 H 12.803 -0.835904 15.947
279 1 H 13.7381 1.82636 15.9933
280 2 C 9.93117 1.41696 6.32496
281 2 C 9.75218 1.40468 7.83696
282 4 O 9.85218 2.59034 8.56337
283 1 H 10.8546 1.94822 6.07472
284 1 H 9.94159 0.404309 5.92758
285 1 H 9.10715 1.93188 5.82016
286 1 H 10.5538 0.731628 8.18511
287 1 H 8.78229 0.914117 8.04077
288 1 H 9.65583 3.35584 7.98381
289 2 C 6.32335 5.56981 10.3922
290 2 C 7.49752 4.94735 11.1722
291 4 O 8.74613 5.61429 11.3446
292 1 H 6.67504 6.01558 9.49914
293 1 H 5.57268 4.79872 10.1984
294 1 H 5.72773 6.33413 10.9546
295 1 H 7.70916 3.97757 10.7004
296 1 H 7.26039 4.5894 12.164
297 1 H 8.87196 6.28246 10.6602
298 2 C 14.4044 10.0396 6.41817
299 2 C 13.6571 9.67537 7.72987
300 4 O 12.7853 8.53676 7.56278
301 1 H 15.4328 10.3262 6.71733
302 1 H 14.4728 9.09732 5.85961
303 1 H 13.9299 10.8171 5.78564
304 1 H 13.1319 10.5514 8.17824
305 1 H 14.437 9.39601 8.43935
306 1 H 12.0576 8.66097 6.92099
307 2 C 11.685 8.76536 13.1471
308 2 C 12.0676 8.72416 14.6019
309 4 O 13.3494 8.05512 14.7791
310 1 H 11.7784 7.73095 12.8161
311 1 H 10.5915 9.021 13.081
312 1 H 12.2924 9.40648 12.5602
313 1 H 11.3683 8.13019 15.1776
314 1 H 12.0873 9.70286 15.1095
315 1 H 13.2773 7.19622 14.3103
316 2 C 3.38759 9.90265 8.32728
317 2 C 4.56283 10.6693 8.88035
318 4 O 5.72414 10.6683 8.0201
319 1 H 2.59351 9.91886 9.04689
320 1 H 2.95444 10.3234 7.41761
321 1 H 3.64717 8.87842 8.15574
322 1 H 4.85435 10.1674 9.81151
323 1 H 4.23121 11.7074 9.10621
324 1 H 5.45064 10.9268 7.1282
325 2 C 17.6173 -0.0404223 11.6858
326 2 C 18.1715 0.265994 13.0312
327 4 O -1.34444 1.66553 12.9612
328 1 H 18.2947 -0.201629 10.8383
329 1 H 16.992 -0.971386 11.804
330 1 H 16.9242 0.72523 11.3096
331 1 H -0.690283 -0.276916 13.2519
332 1 H 17.4249 0.0422238 13.8258
333 1 H -0.833663 2.00834 13.689
334 2 C 2.19824 6.41071 13.0688
335 2 C 2.26737 5.72523 14.4081
336 4 O 1.01357 5.42789 15.0339
337 1 H 3.22609 6.59188 12.7836
338 1 H 1.70178 5.88152 12.2125
339 1 H 1.74008 7.41383 13.1405
340 1 H 2.73691 6.50828 15.0175
341 1 H 2.87427 4.83421 14.3898
342 1 H 0.375847 6.11309 14.9293
343 2 C 4.12576 15.167 12.8986
344 2 C 4.76942 15.167 14.2546
345 4 O 5.63251 16.2742 14.5161
346 1 H 3.51973 14.1828 12.8454
347 1 H 3.40981 16.101 12.8842
348 1 H 4.81108 15.1211 12.0695
349 1 H 5.27652 14.166 14.359
350 1 H 3.96094 15.165 14.9814
351 1 H 6.4096 15.9181 14.9532
352 2 C 4.2135 1.29198 15.4585
353 2 C 5.17567 2.45597 15.7292
354 4 O 4.41958 3.5847 16.2125
355 1 H 3.54484 1.49036 14.6204
356 1 H 4.84032 0.391976 15.3043
357 1 H 3.66514 1.07636 16.3587
358 1 H 5.60838 2.67598 14.75
359 1 H 5.92543 2.15055 16.4503
360 1 H 5.03635 4.13945 16.7225
361 2 C 15.1321 17.6495 7.94662
362 2 C 14.1168 17.9406 9.09126
363 4 O 13.3151 -0.711533 8.85874
364 1 H 16.158 17.9366 8.21076
365 1 H 15.0604 16.6087 7.6727
366 1 H 14.8983 18.2372 7.03188
367 1 H 14.6495 18.1465 10.0389
368 1 H 13.5535 17.081 9.35506
369 1 H 12.9967 -0.775516 7.9225
370 2 C 13.0433 4.10559 7.83588
371 2 C 11.8712 5.08219 7.59804
372 4 O 11.8091 6.17285 8.49722
373 1 H 13.2264 3.65894 8.79152
374 1 H 12.8787 3.26595 7.18397
375 1 H 13.9413 4.53338 7.4123
376 1 H 10.918 4.51478 7.62136
377 1 H 11.9664 5.46133 6.56111
378 1 H 12.4319 6.84228 8.25034
379 2 C 0.267337 6.13626 2.36175
380 2 C 0.198829 6.03217 3.89374
381 4 O 0.249505 7.30703 4.47688
382 1 H 1.28157 6.07244 1.9569
383 1 H -0.302328 5.34008 1.89702
384 1 H -0.171785 7.08849 2.02481
385 1 H 1.10357 5.48685 4.13218
386 1 H -0.722009 5.45909 4.17788
387 1 H 0.292937 7.17534 5.43792
388 2 C 16.7224 14.3742 12.9385
389 2 C 16.7139 15.2667 11.7058
390 4 O 17.6385 16.3371 11.8832
391 1 H 16.5374 14.9181 13.8626
392 1 H 15.9945 13.5963 12.7771
393 1 H 17.6573 13.8456 13.0665
394 1 H 15.7274 15.6117 11.4838
395 1 H 17.0068 14.6199 10.8678
396 1 H 17.4788 16.9249 11.106
397 2 C -0.114871 10.0943 8.99274
398 2 C -0.26582 9.87863 10.4419
399 4 O 0.881055 9.23002 10.9507
400 1 H -0.0366639 9.11099 8.5269
401 1 H -0.908053 10.6906 8.61183
402 1 H 0.816844 10.6166 8.74069
403 1 H -1.12528 9.20111 10.6958
404 1 H -0.45334 10.8304 10.9287
405 1 H 1.03899 9.68621 11.7813
406 2 C 0.718724 12.7564 17.2938
407 2 C 0.348173 11.4458 16.6091
408 4 O -0.0911208 11.7021 15.2152
409 1 H 1.42147 13.4295 16.8083
410 1 H -0.215738 13.3059 17.6338
411 1 H 1.3309 12.5983 18.2332
412 1 H -0.419113 10.9791 17.1104
413 1 H 1.27547 10.8418 16.5556
414 1 H -1.05058 11.6183 15.2503
415 2 C 9.79858 6.01641 4.58079
416 2 C 9.77927 7.23704 5.46896
417 4 O 11.0361 7.95316 5.52817
418 1 H 10.692 5.43204 4.79257
419 1 H 8.95426 5.38634 4.85234
420 1 H 9.66101 6.40101 3.56734
421 1 H 9.54392 6.89484 6.48329
422 1 H 9.06932 8.01451 5.14475
423 1 H 11.2535 8.41332 4.73142
424 2 C 6.01757 13.5273 2.23633
425 2 C 4.67801 14.2921 2.23651
426 4 O 3.71398 13.7418 3.08706
427 1 H 5.8276 12.5716 1.70315
428 1 H 6.79533 14.0693 1.6919
429 1 H 6.34978 13.4847 3.23943
430 1 H 4.29684 14.3628 1.23087
431 1 H 4.80466 15.3206 2.67743
432 1 H 3.19872 13.1168 2.54025
433 2 C -1.21527 5.51386 11.8797
434 2 C -1.22349 4.47147 10.7764
435 4 O 0.120383 4.15161 10.3766
436 1 H -0.703583 6.37619 11.503
437 1 H 17.5071 5.72753 12.1148
438 1 H -0.571204 5.1445 12.7105
439 1 H 18.1195 4.90579 9.91486
440 1 H 18.1016 3.58119 11.0139
441 1 H 0.558099 4.92234 9.98251
442 2 C 13.726 3.32445 -1.26692
443 2 C 14.0936 4.19717 17.3391
444 4 O 13.0594 3.9149 16.2674
445 1 H 13.3694 2.3806 18.0486
446 1 H 14.6546 3.05915 -0.754836
447 1 H 12.9877 3.77019 -0.616
448 1 H 15.0795 4.03035 16.9608
449 1 H 13.9991 5.26886 17.5414
450 1 H 13.1965 4.5607 15.5691
ITEM: TIMESTEP
7800
ITEM: NUMBER OF ATOMS
450
ITEM: BOX BOUNDS pp pp pp
-1.4627638098608688e+00 1.8387763809860907e+01
-1.4627638098608688e+00 1.8387763809860907e+01
-1.4627638098608688e+00 1.8387763809860907e+01
ITEM: ATOMS id type element x y z
1 2 C 12.4711 6.13567 1.80997
2 2 C 12.4879 7.64073 1.9562
3 4 O 11.1946 8.2081 1.90901
4 1 H 13.4431 5.70593 1.98331
5 1 H 11.7441 5.70543 2.4767
6 1 H 12.1603 5.94085 0.784414
7 1 H 13.0767 8.13494 1.17102
8 1 H 12.952 7.91899 2.90964
9 1 H 10.7897 8.08941 1.0563
10 2 C 13.8109 13.4355 17.7241
11 2 C 15.3107 13.4642 17.9639
12 4 O 15.7806 12.1037 18.0881
13 1 H 13.2508 13.4325 -1.18902
14 1 H 13.4944 14.3284 17.193
15 1 H 13.5648 12.558 17.196
16 1 H 15.6341 13.9829 -0.992174
17 1 H 15.8938 13.847 17.1744
18 1 H 15.8252 11.8019 -0.849706
19 2 C 13.4585 1.54318 4.37704
20 2 C 13.4116 0.949566 5.7649
21 4 O 13.1741 -0.44719 5.69684
22 1 H 12.544 1.29162 3.838
23 1 H 13.5848 2.61917 4.48023
24 1 H 14.359 1.14433 3.82166
25 1 H 12.6018 1.49436 6.27931
26 1 H 14.3221 1.12804 6.32099
27 1 H 12.2711 -0.660102 5.51063
28 2 C 15.2807 6.64805 9.19606
29 2 C 16.275 7.17244 8.18992
30 4 O 17.2503 6.22462 7.68925
31 1 H 15.825 6.00427 9.89301
32 1 H 14.8614 7.46635 9.76327
33 1 H 14.3956 6.25112 8.78543
34 1 H 16.8616 8.00855 8.55819
35 1 H 15.7382 7.53658 7.30395
36 1 H 18.1339 6.53087 7.87655
37 2 C 1.57043 0.433663 11.3921
38 2 C 2.26355 1.72728 11.0547
39 4 O 3.15937 1.81629 10.2592
40 1 H 0.540839 0.631395 11.1163
41 1 H 2.00308 -0.348992 10.7728
42 1 H 1.62774 0.242344 12.4921
43 1 H 1.77423 2.5626 11.5306
44 1 H 18.3417 -0.127515 -0.593954
45 1 H 8.92269 4.92835 7.62114
46 2 C 13.2443 14.6896 8.44094
47 2 C 11.8801 15.3242 7.9086
48 4 O 12.0939 16.3924 6.97097
49 1 H 13.0834 13.7094 8.87738
50 1 H 13.9463 14.5392 7.62997
51 1 H 13.7755 15.3637 9.09209
52 1 H 11.205 15.6364 8.71788
53 1 H 11.3391 14.5298 7.39495
54 1 H 11.4373 16.5474 6.28222
55 2 C 13.4999 3.764 12.4559
56 2 C 12.2774 4.67896 12.5363
57 4 O 12.3793 5.41729 13.8023
58 1 H 13.476 3.18034 13.3976
59 1 H 13.312 3.05653 11.5308
60 1 H 14.4859 4.20471 12.3775
61 1 H 11.3536 4.01343 12.5655
62 1 H 12.0655 5.41414 11.7057
63 1 H 11.4726 5.72578 13.9671
64 2 C 8.46141 9.37059 9.83724
65 2 C 9.48586 8.65491 9.00324
66 4 O 9.41995 7.21519 9.27125
67 1 H 8.70803 9.35538 10.8914
68 1 H 8.31481 10.398 9.47532
69 1 H 7.54413 8.78782 9.72852
70 1 H 10.5154 9.04508 9.12903
71 1 H 9.15759 8.76473 7.94672
72 1 H 10.243 6.77656 8.90142
73 2 C 6.18035 1.50097 6.59337
74 2 C 6.37803 3.05467 6.62299
75 4 O 7.18524 3.44483 7.70969
76 1 H 5.61212 1.0692 7.37876
77 1 H 5.66287 1.30389 5.65286
78 1 H 7.19754 1.12433 6.59015
79 1 H 5.36615 3.51302 6.62317
80 1 H 6.92944 3.32164 5.70924
81 1 H 7.17777 4.41864 7.69377
82 2 C 3.85134 10.3351 12.5968
83 2 C 2.93832 10.9433 13.6168
84 4 O 1.6704 10.5269 13.1596
85 1 H 3.67893 9.28141 12.3664
86 1 H 3.68342 10.8437 11.6671
87 1 H 4.92697 10.4537 12.8259
88 1 H 3.02242 12.0549 13.7429
89 1 H 3.11622 10.5215 14.6257
90 1 H 1.01615 10.6209 13.8792
91 2 C 9.44026 3.92681 14.9458
92 2 C 8.84815 5.35273 14.8513
93 4 O 9.63005 6.20737 13.825
94 1 H 9.1916 3.40229 15.8476
95 1 H 8.87592 3.48533 14.1098
96 1 H 10.5057 3.84679 14.9694
97 1 H 8.87047 5.9713 15.7757
98 1 H 7.71146 5.28708 14.6586
99 1 H 9.12746 6.12108 13.0077
100 2 C 8.26733 13.5469 9.77121
101 2 C 8.17892 14.4235 11.0016
102 4 O 8.20312 13.6685 12.1804
103 1 H 7.38367 12.8186 9.75614
104 1 H 8.17068 14.1233 8.84167
105 1 H 9.1102 12.8843 9.63724
106 1 H 7.27706 15.0342 10.9547
107 1 H 9.04459 15.0726 11.0363
108 1 H 7.45403 13.0628 12.1851
109 2 C 3.43776 14.8892 6.62619
110 2 C 4.6715 14.0137 6.29527
111 4 O 4.41165 12.7952 5.56085
112 1 H 2.95436 15.1469 5.68031
113 1 H 2.75229 14.2873 7.20503
114 1 H 3.74381 15.8536 6.95575
115 1 H 5.09243 13.6879 7.22707
116 1 H 5.39326 14.6929 5.83805
117 1 H 4.05424 13.0405 4.68857
118 2 C 1.44184 5.78661 7.66744
119 2 C 1.41357 6.9904 8.59738
120 4 O 0.432546 6.92409 9.59923
121 1 H 0.665954 5.85482 6.89801
122 1 H 2.35483 5.74882 7.12366
123 1 H 1.34931 4.84689 8.20893
124 1 H 1.29824 7.92278 8.00667
125 1 H 2.42601 7.03781 9.04427
126 1 H 0.597272 7.6632 10.2213
127 2 C 7.52673 -1.20426 17.9777
128 2 C 6.81923 17.7064 17.0119
129 4 O 7.53865 16.4706 16.8381
130 1 H 6.84204 -0.41475 18.1959
131 1 H 7.77658 18.158 -0.876241
132 1 H 8.45359 -0.892364 17.523
133 1 H 6.73143 18.1747 16.0457
134 1 H 5.78234 17.5922 17.3117
135 1 H 7.5503 16.0249 17.7023
136 2 C 6.98007 10.0954 4.6403
137 2 C 8.12667 10.7947 3.94254
138 4 O 8.2037 10.5131 2.50039
139 1 H 7.08179 9.005 4.66318
140 1 H 6.93396 10.356 5.71974
141 1 H 5.99266 10.4109 4.23262
142 1 H 9.05779 10.6143 4.41786
143 1 H 7.91977 11.8372 4.13627
144 1 H 8.86613 9.83033 2.37119
145 2 C 8.35298 -1.20546 3.18429
146 2 C 9.17703 17.5255 3.82678
147 4 O 10.3189 18.0508 4.52092
148 1 H 7.67682 18.1609 2.46452
149 1 H 7.72613 -0.735377 3.97724
150 1 H 8.92883 -0.41632 2.78738
151 1 H 9.48194 16.8054 3.04054
152 1 H 8.62399 16.8301 4.51267
153 1 H 11.0742 17.7628 4.03701
154 2 C -0.419695 1.33056 16.7368
155 2 C 0.449131 2.51784 16.3467
156 4 O 0.470051 2.74274 14.9225
157 1 H -0.0570079 0.458175 16.1932
158 1 H -0.388705 1.17611 17.8049
159 1 H 18.3768 1.4732 16.4738
160 1 H 1.46589 2.30228 16.6653
161 1 H 0.19331 3.43026 16.8815
162 1 H 0.616914 3.72018 14.8576
163 2 C 18.3469 10.4475 4.02835
164 2 C -0.242788 10.8656 4.78873
165 4 O 0.936974 10.1344 4.38289
166 1 H 17.8181 9.59706 4.4722
167 1 H 17.627 11.3006 4.172
168 1 H -1.28349 10.3624 2.95585
169 1 H -0.398395 10.7905 5.89058
170 1 H -0.0232819 11.9211 4.59444
171 1 H 0.729973 9.20053 4.56343
172 2 C 9.72202 7.96703 18.1732
173 2 C 11.0131 7.15308 17.9164
174 4 O 10.8597 5.79548 18.3283
175 1 H 8.85523 7.89053 17.5383
176 1 H 9.26064 7.85588 -0.662568
177 1 H 10.0165 9.05801 18.1157
178 1 H 11.8056 7.61436 -1.32968
179 1 H 11.374 7.2643 16.8716
180 1 H 11.5292 5.2169 17.9907
181 2 C 1.18623 0.638442 7.67745
182 2 C 1.2532 2.06035 7.14186
183 4 O 0.340822 2.85271 7.76862
184 1 H 0.150456 0.290725 7.67707
185 1 H 1.77666 -0.00208786 7.06817
186 1 H 1.65277 0.601561 8.66172
187 1 H 1.03364 1.85464 6.11724
188 1 H 2.25224 2.48211 7.1778
189 1 H -0.550526 2.55331 7.579
190 2 C 5.3994 -0.451714 10.3395
191 2 C 6.53246 -1.14046 11.0317
192 4 O 5.99414 17.6846 11.9263
193 1 H 5.72113 0.353115 9.68795
194 1 H 4.79563 -1.18051 9.75504
195 1 H 4.76713 0.0415146 11.1043
196 1 H 7.12535 -0.401683 11.5559
197 1 H 7.20341 18.2359 10.3216
198 1 H 6.71207 17.3425 12.4633
199 2 C 12.4077 14.6703 14.3492
200 2 C 11.5852 13.4255 14.068
201 4 O 11.3965 13.138 12.6792
202 1 H 12.9572 14.6542 15.2593
203 1 H 13.1872 14.7028 13.5614
204 1 H 11.824 15.6022 14.3586
205 1 H 10.6455 13.507 14.6227
206 1 H 12.1381 12.5643 14.4715
207 1 H 10.4708 13.2845 12.5395
208 2 C 0.732725 10.268 0.690677
209 2 C 2.21417 10.4742 0.981819
210 4 O 2.44918 11.2767 2.08956
211 1 H 0.267648 9.79806 1.55484
212 1 H 0.173694 11.1839 0.523956
213 1 H 0.634338 9.63337 -0.199214
214 1 H 2.61551 10.9351 0.0783582
215 1 H 2.74754 9.51735 1.09879
216 1 H 1.91883 11.0042 2.8671
217 2 C 15.7032 10.0968 13.9504
218 2 C 16.642 10.1215 15.1514
219 4 O 16.9361 11.4733 15.512
220 1 H 14.7883 10.6197 14.2704
221 1 H 16.1407 10.4982 13.0443
222 1 H 15.279 9.04569 13.9282
223 1 H 17.6325 9.57975 14.9284
224 1 H 16.1203 9.55558 15.9747
225 1 H 16.7776 11.5708 16.4561
226 2 C 15.8317 2.25047 9.01473
227 2 C 17.0025 1.80453 8.12994
228 4 O 17.7107 2.99756 7.45869
229 1 H 15.2636 3.11156 8.57005
230 1 H 15.0882 1.43568 8.89608
231 1 H 15.8853 2.50142 10.086
232 1 H 16.7387 1.18975 7.26664
233 1 H 17.7158 1.32031 8.80627
234 1 H 17.614 3.78682 7.99977
235 2 C 15.194 -0.753793 -0.0768852
236 2 C 16.3491 0.245185 -0.0431764
237 4 O 17.4969 -0.580873 -0.514728
238 1 H 14.8587 -0.949067 -1.07482
239 1 H 15.3557 18.2588 0.520862
240 1 H 14.238 -0.25403 0.260045
241 1 H 16.58 0.650387 0.951882
242 1 H 16.1286 1.16658 -0.657013
243 1 H 0.293532 3.49546 9.41553
244 2 C 12.5186 14.8406 2.50231
245 2 C 12.8723 15.5636 3.88664
246 4 O 12.7235 16.9858 3.64923
247 1 H 12.963 13.8668 2.42998
248 1 H 11.4081 14.7912 2.24443
249 1 H 13.1452 15.5079 1.85886
250 1 H 13.9982 15.3643 4.03576
251 1 H 12.3131 15.2219 4.68343
252 1 H 13.4044 17.4645 4.15146
253 2 C 17.9379 5.85039 17.325
254 2 C 17.3789 6.15696 15.9436
255 4 O 18.1919 7.17729 15.3619
256 1 H 17.9865 6.82519 17.8611
257 1 H 17.4049 5.03726 17.8739
258 1 H -0.887406 5.52336 17.0533
259 1 H 16.4077 6.62268 16.0756
260 1 H 17.2533 5.27836 15.3369
261 1 H 17.5979 7.6857 14.8097
262 2 C 0.662345 -1.37616 3.95944
263 2 C 1.95324 17.6157 3.83449
264 4 O 1.49027 16.3221 3.55582
265 1 H 0.220302 -1.34388 2.97062
266 1 H -0.0352041 17.8875 4.59497
267 1 H 0.805443 -0.310283 4.26777
268 1 H 2.51254 17.6771 4.76786
269 1 H 2.5851 17.8805 3.00233
270 1 H 2.22931 15.7564 3.30421
271 2 C 11.4809 0.720255 16.8933
272 2 C 12.5662 0.216283 15.9778
273 4 O 13.7941 0.872578 16.0577
274 1 H 10.5131 0.197692 16.6757
275 1 H 11.7086 0.53905 17.9394
276 1 H 11.2928 1.80816 16.7854
277 1 H 12.1818 0.233967 14.9381
278 1 H 12.7457 -0.820533 16.2584
279 1 H 13.7765 1.71097 15.5888
280 2 C 9.84176 1.42195 6.49387
281 2 C 9.81309 1.16319 8.01315
282 4 O 9.66749 2.37998 8.73935
283 1 H 10.5662 2.18016 6.1973
284 1 H 10.0428 0.505138 5.94367
285 1 H 8.88781 1.74193 6.12442
286 1 H 10.6734 0.634317 8.33513
287 1 H 8.96592 0.487966 8.18011
288 1 H 8.94321 2.83893 8.32339
289 2 C 6.48946 5.33251 10.1831
290 2 C 7.6594 4.819 10.9968
291 4 O 8.50941 5.89945 11.3681
292 1 H 6.78224 5.77442 9.19297
293 1 H 5.72227 4.5758 10.0634
294 1 H 6.07638 6.15103 10.7641
295 1 H 8.23154 4.00835 10.5259
296 1 H 7.21983 4.48807 11.9698
297 1 H 8.88118 6.36908 10.596
298 2 C 14.7294 9.79112 6.7354
299 2 C 13.6499 9.58172 7.77636
300 4 O 13.0931 8.24002 7.5767
301 1 H 15.6497 10.1408 7.18698
302 1 H 15.0441 8.88541 6.22452
303 1 H 14.3504 10.4605 5.94713
304 1 H 12.9155 10.3647 7.78486
305 1 H 14.0605 9.62944 8.79836
306 1 H 12.5904 8.21474 6.75519
307 2 C 12.0565 9.13826 13.0996
308 2 C 12.1026 8.7542 14.5396
309 4 O 13.3383 8.06398 14.8948
310 1 H 11.8523 8.2084 12.5233
311 1 H 11.1367 9.72962 13.0279
312 1 H 12.8654 9.71597 12.6832
313 1 H 11.2675 8.0751 14.7616
314 1 H 11.9127 9.52516 15.2906
315 1 H 13.3093 7.24722 14.4075
316 2 C 3.73334 9.55244 8.31037
317 2 C 4.63628 10.5808 8.9103
318 4 O 5.44129 11.0254 7.8212
319 1 H 3.10209 9.04097 9.03055
320 1 H 3.09971 10.0309 7.54483
321 1 H 4.30979 8.79902 7.79017
322 1 H 5.3536 10.1666 9.66678
323 1 H 4.09756 11.3803 9.39447
324 1 H 4.83418 11.0898 7.07169
325 2 C 17.5057 -0.127917 11.7196
326 2 C 18.2071 0.358305 12.9905
327 4 O 18.3273 1.83633 13.0123
328 1 H 18.118 -0.216053 10.8387
329 1 H 16.9486 -1.05552 11.7418
330 1 H 16.76 0.657505 11.4891
331 1 H -0.672792 -0.154584 13.1872
332 1 H 17.5305 0.132892 13.8031
333 1 H -0.885311 2.06724 13.7278
334 2 C 1.9129 6.40893 12.9527
335 2 C 2.24787 5.68447 14.2396
336 4 O 1.05638 5.58593 15.0272
337 1 H 2.79874 6.68464 12.3776
338 1 H 1.28186 5.89164 12.2418
339 1 H 1.38366 7.29181 13.2251
340 1 H 2.94129 6.32978 14.7295
341 1 H 2.67695 4.66695 14.0996
342 1 H 0.468539 6.33576 14.9595
343 2 C 3.95514 15.4154 12.7919
344 2 C 4.80083 15.0406 14.0699
345 4 O 5.70543 16.1308 14.2345
346 1 H 2.87854 15.1565 12.8511
347 1 H 4.02943 16.4436 12.5223
348 1 H 4.42914 14.9052 11.9883
349 1 H 5.2621 14.1191 13.8198
350 1 H 4.21026 14.9133 15.0005
351 1 H 6.23864 15.9764 15.0295
352 2 C 4.21974 1.15136 15.5655
353 2 C 5.17845 2.08858 16.3496
354 4 O 4.47932 3.3449 16.4494
355 1 H 3.90893 1.7101 14.6916
356 1 H 4.66435 0.197433 15.309
357 1 H 3.38475 0.875489 16.2081
358 1 H 6.14306 2.1042 15.849
359 1 H 5.34567 1.69765 17.3642
360 1 H 5.11277 3.9545 16.8385
361 2 C 15.3726 17.6706 8.33708
362 2 C 14.0669 17.8033 9.09016
363 4 O 13.3555 -0.806522 8.84443
364 1 H 16.0271 -1.34182 8.55446
365 1 H 15.7894 16.7006 8.57058
366 1 H 15.1707 17.7752 7.27332
367 1 H 14.2539 17.7441 10.1628
368 1 H 13.3771 17.0105 8.78532
369 1 H 13.1167 -0.831878 7.92204
370 2 C 12.9808 4.19086 8.32964
371 2 C 11.8749 5.00447 7.75263
372 4 O 11.5601 6.11322 8.63778
373 1 H 12.8637 4.02048 9.41107
374 1 H 13.0155 3.2157 7.83842
375 1 H 13.9191 4.72397 8.27157
376 1 H 11.0426 4.30009 7.75053
377 1 H 12.1046 5.35431 6.75371
378 1 H 12.2535 6.81409 8.47358
379 2 C 0.0533971 6.56742 2.33921
380 2 C 0.298139 6.29288 3.8123
381 4 O 0.939497 7.45384 4.4653
382 1 H 0.769002 7.22656 1.8354
383 1 H 0.0756759 5.6494 1.78366
384 1 H -0.910729 7.08442 2.23539
385 1 H 0.955623 5.41857 3.92065
386 1 H -0.645377 6.08345 4.25632
387 1 H 1.40754 7.17864 5.26531
388 2 C 16.9056 14.2918 12.851
389 2 C 16.6833 15.3369 11.7643
390 4 O 17.404 16.4955 12.275
391 1 H 16.4942 14.6241 13.8169
392 1 H 16.4764 13.3169 12.6177
393 1 H 17.9916 14.0907 12.9066
394 1 H 15.5987 15.5887 11.6193
395 1 H 17.1116 14.9477 10.8345
396 1 H 17.7762 16.9957 11.5464
397 2 C 0.0270485 10.0508 8.86738
398 2 C 0.26875 10.0231 10.4117
399 4 O 1.36707 9.1337 10.7298
400 1 H -0.232372 9.03475 8.44662
401 1 H -0.776195 10.779 8.68011
402 1 H 0.85845 10.5394 8.33135
403 1 H -0.559873 9.59968 10.9366
404 1 H 0.370447 11.0683 10.7477
405 1 H 1.65597 9.5102 11.6001
406 2 C 0.637121 12.9844 17.2088
407 2 C 0.305044 11.6758 16.5704
408 4 O -0.063635 11.9005 15.189
409 1 H 1.50689 13.3995 16.7545
410 1 H -0.0737688 13.7573 16.9625
411 1 H 0.796475 13.0774 18.2736
412 1 H -0.564549 11.0526 16.9849
413 1 H 1.19911 11.0347 16.6068
414 1 H -1.03704 11.8682 15.1945
415 2 C 9.70229 6.05038 4.83281
416 2 C 9.67153 7.26012 5.71963
417 4 O 10.7273 8.18651 5.43663
418 1 H 10.4238 5.3196 5.21504
419 1 H 8.7311 5.60995 4.82421
420 1 H 9.95208 6.35847 3.81799
421 1 H 9.72043 6.99346 6.76742
422 1 H 8.81484 7.91684 5.61949
423 1 H 10.7882 8.24201 4.4836
424 2 C 5.79305 13.6936 2.18392
425 2 C 4.45719 14.3629 2.02258
426 4 O 3.53218 13.6998 2.91981
427 1 H 5.75134 12.6237 2.09691
428 1 H 6.43396 14.117 1.3501
429 1 H 6.19024 13.9541 3.17251
430 1 H 4.05148 14.305 1.00279
431 1 H 4.46279 15.3799 2.32129
432 1 H 3.10228 12.9828 2.43357
433 2 C -1.21021 5.24849 11.7237
434 2 C -1.20514 4.04136 10.7802
435 4 O 0.208654 4.0182 10.2894
436 1 H -0.668341 6.09004 11.3086
437 1 H 17.5834 5.48628 11.8847
438 1 H -0.805819 4.98829 12.6504
439 1 H 17.9104 4.13657 9.87438
440 1 H -1.402 3.02801 11.2212
441 1 H 0.469881 4.95696 10.1739
442 2 C 14.3649 3.44348 18.0594
443 2 C 13.9131 4.41646 16.9277
444 4 O 12.9916 3.80974 16.0588
445 1 H 15.0561 2.61821 17.7548
446 1 H 14.8662 4.09501 -1.07375
447 1 H 13.4713 2.95311 -1.36892
448 1 H 14.829 4.79805 16.3973
449 1 H 13.5021 5.34171 17.3583
450 1 H 12.8962 4.41194 15.2853
ITEM: TIMESTEP
7900
ITEM: NUMBER OF ATOMS
450
ITEM: BOX BOUNDS pp pp pp
-1.4908632533349611e+00 1.8415863253335004e+01
-1.4908632533349611e+00 1.8415863253335004e+01
-1.4908632533349611e+00 1.8415863253335004e+01
ITEM: ATOMS id type element x y z
1 2 C 12.6583 6.15252 1.69909
2 2 C 12.6164 7.68701 1.74507
3 4 O 11.2962 8.14995 1.98093
4 1 H 13.6566 5.77752 1.32791
5 1 H 12.3956 5.65761 2.62479
6 1 H 11.8881 5.89877 0.984664
7 1 H 12.9535 8.16079 0.819968
8 1 H 13.2739 8.04707 2.53571
9 1 H 10.7272 7.67379 1.36776
10 2 C 13.8838 13.5273 18.1146
11 2 C 15.3315 13.3779 17.7116
12 4 O 15.7642 12.0381 17.7782
13 1 H 13.6662 13.2176 -0.758073
14 1 H 13.6497 14.6104 18.0863
15 1 H 13.2642 13.015 17.3409
16 1 H 15.9856 13.8887 -1.48123
17 1 H 15.493 13.791 16.6487
18 1 H 15.0132 11.4805 -1.92229
19 2 C 13.5202 1.37813 4.23657
20 2 C 13.6177 0.672642 5.60932
21 4 O 13.0712 -0.691476 5.5052
22 1 H 12.7579 0.919375 3.60452
23 1 H 13.3698 2.43939 4.42957
24 1 H 14.3836 1.14317 3.62102
25 1 H 13.1162 1.31478 6.3335
26 1 H 14.685 0.519837 5.88128
27 1 H 12.0939 -0.670952 5.39724
28 2 C 15.4116 6.75284 9.09798
29 2 C 16.5362 7.21062 8.23239
30 4 O 17.4859 6.11962 8.19333
31 1 H 15.7937 6.46493 10.0578
32 1 H 14.7389 7.59635 9.27664
33 1 H 14.8737 5.9503 8.63562
34 1 H 17.0922 8.04162 8.64369
35 1 H 16.2403 7.42708 7.19178
36 1 H 18.2319 6.31566 7.6321
37 2 C 1.51724 0.488522 11.5926
38 2 C 2.10373 1.80969 11.222
39 4 O 2.83916 1.77566 10.2855
40 1 H 0.653146 0.324252 10.9736
41 1 H 2.2786 -0.191496 11.222
42 1 H 1.35919 0.332138 12.6622
43 1 H 1.787 2.755 11.777
44 1 H 18.1466 0.267244 -0.125113
45 1 H 8.64837 4.92946 8.09653
46 2 C 13.3609 14.6759 8.37461
47 2 C 12.1201 15.3529 8.09633
48 4 O 12.3616 16.1626 6.93709
49 1 H 13.2123 13.7586 8.9567
50 1 H 13.835 14.4099 7.41274
51 1 H 14.0305 15.2817 8.97553
52 1 H 11.8462 15.9454 8.97792
53 1 H 11.2743 14.6644 8.00935
54 1 H 12.0197 17.0566 7.08164
55 2 C 13.261 3.50818 12.3499
56 2 C 12.0772 4.48409 12.4701
57 4 O 12.0772 5.12634 13.689
58 1 H 13.339 2.73895 13.0897
59 1 H 13.4074 3.23151 11.374
60 1 H 14.1087 4.19893 12.3939
61 1 H 11.1505 3.934 12.4093
62 1 H 12.0579 5.1287 11.6273
63 1 H 11.1095 5.34367 13.8205
64 2 C 8.55639 9.29773 9.80383
65 2 C 9.36104 8.42472 8.88066
66 4 O 8.9715 7.1158 9.10888
67 1 H 8.73747 9.06739 10.8378
68 1 H 8.84305 10.361 9.6387
69 1 H 7.50298 9.15135 9.62209
70 1 H 10.4164 8.58557 9.0428
71 1 H 9.15906 8.73528 7.86986
72 1 H 9.76735 6.58047 9.08107
73 2 C 6.16183 1.33453 6.78553
74 2 C 6.36264 2.81137 6.65359
75 4 O 6.80012 3.27267 7.95432
76 1 H 5.65985 1.11649 7.7389
77 1 H 5.67954 0.951935 5.87011
78 1 H 7.18231 0.962404 6.89994
79 1 H 5.40641 3.20429 6.39169
80 1 H 7.08242 3.06517 5.86646
81 1 H 6.83324 4.23187 7.90939
82 2 C 4.00016 10.4901 12.5621
83 2 C 2.97088 10.9892 13.5794
84 4 O 1.65181 10.4502 13.1972
85 1 H 4.08085 9.35715 12.7184
86 1 H 3.75064 10.7291 11.528
87 1 H 4.94655 10.8819 12.7821
88 1 H 2.92456 12.0576 13.5708
89 1 H 3.28035 10.5048 14.508
90 1 H 1.11475 10.8477 13.8886
91 2 C 8.94344 3.78207 14.8089
92 2 C 8.53027 5.34161 14.8188
93 4 O 9.56601 6.14073 14.203
94 1 H 8.11627 3.03624 15.0578
95 1 H 9.37517 3.57747 13.7861
96 1 H 9.70734 3.52191 15.5429
97 1 H 8.37454 5.75197 15.8369
98 1 H 7.63368 5.47866 14.2579
99 1 H 9.2629 6.27743 13.2491
100 2 C 8.17196 13.5337 9.75309
101 2 C 8.2742 14.5213 10.8911
102 4 O 8.32312 13.814 12.1455
103 1 H 7.23185 13.0299 9.72507
104 1 H 8.19221 14.0172 8.78417
105 1 H 8.95718 12.7912 9.83595
106 1 H 7.36937 15.133 10.8725
107 1 H 9.18206 15.1225 10.7626
108 1 H 7.4055 13.6198 12.3791
109 2 C 3.36951 14.5539 6.38416
110 2 C 4.70812 13.969 5.90059
111 4 O 4.34058 12.7245 5.29643
112 1 H 2.76904 14.8706 5.54448
113 1 H 2.9269 13.7521 6.99637
114 1 H 3.62091 15.4363 7.0472
115 1 H 5.41326 13.8024 6.6921
116 1 H 5.06531 14.6794 5.11951
117 1 H 3.85658 12.9849 4.49575
118 2 C 1.23257 5.82513 7.42376
119 2 C 1.54579 6.83122 8.46838
120 4 O 0.573783 6.6218 9.44799
121 1 H 0.193896 5.94013 7.15823
122 1 H 1.7943 5.88925 6.46291
123 1 H 1.43707 4.8111 7.74932
124 1 H 1.48898 7.8588 8.15513
125 1 H 2.51813 6.67204 8.87639
126 1 H 0.469974 7.34883 10.0595
127 2 C 7.78045 -1.31119 17.9628
128 2 C 6.68272 17.7694 17.3294
129 4 O 7.2105 16.5446 16.8791
130 1 H 7.46829 -0.264765 18.1783
131 1 H 8.10295 18.0986 -1.03578
132 1 H 8.62983 -1.35995 17.3054
133 1 H 6.26513 18.2584 16.4352
134 1 H 5.83747 17.6975 18.0531
135 1 H 7.33845 15.966 17.6438
136 2 C 6.9808 10.2126 4.67683
137 2 C 8.16256 10.792 4.02191
138 4 O 8.249 10.3637 2.68333
139 1 H 7.04392 9.14144 4.51325
140 1 H 6.91363 10.2707 5.73633
141 1 H 6.01654 10.5651 4.29158
142 1 H 9.08741 10.4401 4.55651
143 1 H 8.10569 11.8992 3.98145
144 1 H 8.43762 9.42697 2.68038
145 2 C 8.5171 -1.37478 3.16875
146 2 C 9.28146 17.5033 4.04752
147 4 O 10.3107 18.2556 4.76858
148 1 H 7.54978 18.2387 2.80146
149 1 H 8.5323 -0.454335 3.77142
150 1 H 9.17527 -1.18752 2.28595
151 1 H 9.69352 16.6999 3.39607
152 1 H 8.66662 17.1015 4.82277
153 1 H 11.1601 17.8569 4.48081
154 2 C -0.354301 1.48182 16.6538
155 2 C 0.518881 2.71051 16.4301
156 4 O 0.471578 2.86451 15.0196
157 1 H 0.0659165 0.559906 16.2538
158 1 H -0.513661 1.3299 17.7238
159 1 H -1.31872 1.59929 16.1541
160 1 H 1.53824 2.51817 16.7917
161 1 H 0.105901 3.56665 16.9807
162 1 H 0.66362 3.80415 14.9385
163 2 C -1.36948 10.3752 3.87654
164 2 C -0.161067 10.8426 4.65187
165 4 O 1.01048 10.0968 4.42893
166 1 H 18.3075 9.31935 3.95502
167 1 H 17.6762 10.8636 4.27203
168 1 H -1.20487 10.6125 2.84847
169 1 H -0.363771 10.8179 5.71005
170 1 H 0.0943484 11.8357 4.31197
171 1 H 0.824716 9.15948 4.55192
172 2 C 9.63252 7.77585 18.3394
173 2 C 10.9315 7.13997 17.9645
174 4 O 10.9379 5.84554 -1.31707
175 1 H 8.89502 6.95083 18.4063
176 1 H 9.62693 8.02337 -0.535548
177 1 H 9.13154 8.4384 17.6878
178 1 H 11.7458 7.70503 -1.47301
179 1 H 11.0549 7.13159 16.8498
180 1 H 11.3823 5.28577 17.9221
181 2 C 1.07721 0.367132 7.73002
182 2 C 1.29192 1.85649 7.23147
183 4 O 0.403118 2.8919 7.61539
184 1 H 0.463835 -0.220899 7.03927
185 1 H 2.00722 -0.153132 7.9271
186 1 H 0.519882 0.423167 8.68995
187 1 H 1.24935 1.73774 6.11994
188 1 H 2.29027 2.19987 7.5612
189 1 H -0.497791 2.52923 7.4629
190 2 C 5.54652 -0.451679 10.325
191 2 C 6.50126 -1.42664 11.046
192 4 O 5.64015 17.9239 11.9896
193 1 H 5.98782 0.135152 9.54606
194 1 H 4.75844 -1.02406 9.84132
195 1 H 5.04176 0.151902 11.0717
196 1 H 7.37578 -0.897996 11.4823
197 1 H 6.832 17.7074 10.3249
198 1 H 6.02633 17.3586 12.6612
199 2 C 12.3463 14.7568 14.3196
200 2 C 11.4725 13.5083 14.0946
201 4 O 11.0626 13.5281 12.7642
202 1 H 12.4847 15.0562 15.3713
203 1 H 13.314 14.6409 13.8209
204 1 H 11.8658 15.568 13.8086
205 1 H 10.6498 13.5077 14.8071
206 1 H 12.1041 12.6204 14.2578
207 1 H 10.1208 13.611 12.8027
208 2 C 0.654225 10.4559 0.911506
209 2 C 2.19564 10.4018 1.12838
210 4 O 2.55952 10.9608 2.38536
211 1 H 0.163014 9.84855 1.68744
212 1 H 0.307547 11.4727 1.09057
213 1 H 0.28468 10.1771 -0.0779407
214 1 H 2.60593 10.9512 0.290878
215 1 H 2.5894 9.38369 1.12639
216 1 H 2.00486 10.6785 3.12355
217 2 C 15.5565 10.2455 14.4108
218 2 C 16.7086 10.2335 15.4606
219 4 O 17.2863 11.5345 15.5789
220 1 H 14.71 10.7699 14.8048
221 1 H 15.9532 10.7919 13.5736
222 1 H 15.1198 9.25066 14.2618
223 1 H 17.4714 9.59455 15.1999
224 1 H 16.3583 9.89624 16.4091
225 1 H 16.6031 12.0487 15.9956
226 2 C 15.8267 2.37464 9.04753
227 2 C 16.9297 2.01665 8.09968
228 4 O 17.4985 3.05355 7.41546
229 1 H 14.9587 2.87298 8.54359
230 1 H 15.2888 1.58523 9.48662
231 1 H 16.2151 2.94272 9.88947
232 1 H 16.6831 1.31945 7.2605
233 1 H 17.7162 1.58239 8.73868
234 1 H 17.253 3.96604 7.68176
235 2 C 15.1 -0.472529 -0.1866
236 2 C 16.2753 0.399075 0.0037048
237 4 O 17.4153 -0.24384 -0.442395
238 1 H 14.9991 -0.922823 -1.18406
239 1 H 15.0564 -1.29601 0.605439
240 1 H 14.193 0.0599732 -0.101387
241 1 H 16.5148 0.552648 1.05706
242 1 H 16.1682 1.36101 -0.458782
243 1 H 0.295066 3.6649 9.39676
244 2 C 12.8954 14.8757 2.45696
245 2 C 12.9548 15.704 3.68677
246 4 O 12.5126 17.0037 3.47544
247 1 H 13.1349 13.8866 2.92079
248 1 H 12.1344 14.8564 1.67774
249 1 H 13.7699 15.2861 1.93064
250 1 H 14.0082 15.7508 3.79563
251 1 H 12.5137 15.2325 4.6341
252 1 H 13.155 17.6126 3.8935
253 2 C 17.7605 5.82326 17.3171
254 2 C 17.4145 6.39125 15.9007
255 4 O 18.5568 7.14919 15.4132
256 1 H 17.724 6.48836 18.1355
257 1 H 17.0119 5.07898 17.4362
258 1 H -1.16227 5.41323 17.2429
259 1 H 16.6009 7.08509 16.0808
260 1 H 17.0922 5.52233 15.2867
261 1 H 18.5075 7.22391 14.4564
262 2 C 0.770732 -1.52791 3.94151
263 2 C 1.93924 17.4933 3.87126
264 4 O 1.61491 16.1991 3.53451
265 1 H 0.138056 18.3043 3.08498
266 1 H 0.172044 18.0947 4.79826
267 1 H 1.15631 -0.517006 4.03571
268 1 H 2.42795 17.6297 4.869
269 1 H 2.73258 17.8631 3.18041
270 1 H 2.32242 15.5958 3.55973
271 2 C 11.5803 0.841348 16.9982
272 2 C 12.4752 0.151752 15.9845
273 4 O 13.7097 0.837111 15.6763
274 1 H 10.5307 0.820832 16.7064
275 1 H 11.7284 0.532948 18.0299
276 1 H 11.7767 1.92417 17.1076
277 1 H 11.9101 0.0687215 15.063
278 1 H 12.7416 -0.851961 16.2835
279 1 H 13.4468 1.82265 15.6007
280 2 C 9.88162 1.47049 6.61701
281 2 C 9.97323 1.1119 8.08486
282 4 O 9.41435 2.20335 8.8498
283 1 H 10.6465 2.13101 6.19932
284 1 H 9.8398 0.608529 5.92961
285 1 H 8.94888 2.0495 6.50762
286 1 H 11.0163 0.959342 8.4528
287 1 H 9.43945 0.168144 8.24764
288 1 H 8.4666 2.25518 8.68073
289 2 C 6.55847 5.27362 10.1059
290 2 C 7.84814 4.82868 10.7557
291 4 O 8.24711 5.96289 11.5652
292 1 H 6.66681 6.03407 9.31967
293 1 H 6.07179 4.41472 9.66927
294 1 H 5.98745 5.69951 10.9054
295 1 H 8.66701 4.53362 10.0936
296 1 H 7.56653 4.06525 11.4315
297 1 H 8.56116 6.65753 10.9473
298 2 C 14.7589 9.91302 6.90859
299 2 C 13.6738 9.248 7.773
300 4 O 13.0747 8.11874 7.24981
301 1 H 15.4004 10.6025 7.46889
302 1 H 15.4877 9.24269 6.45086
303 1 H 14.3236 10.4249 6.0759
304 1 H 12.916 10.0298 7.94497
305 1 H 14.0634 8.95567 8.73646
306 1 H 12.5957 8.30823 6.43043
307 2 C 12.3955 9.45807 13.062
308 2 C 12.1901 8.84398 14.4806
309 4 O 13.095 7.8611 14.8975
310 1 H 12.4695 8.68915 12.3133
311 1 H 11.6413 10.1504 12.7754
312 1 H 13.3805 9.99599 13.0058
313 1 H 11.1939 8.42476 14.5961
314 1 H 12.3122 9.55847 15.2923
315 1 H 12.9425 7.0164 14.4296
316 2 C 4.22754 9.19663 8.24593
317 2 C 4.77533 10.5901 8.60581
318 4 O 5.31458 11.524 7.69478
319 1 H 3.95678 8.65277 9.17118
320 1 H 3.36234 9.26452 7.60273
321 1 H 4.96185 8.56752 7.68622
322 1 H 5.56752 10.4815 9.28624
323 1 H 3.96886 11.1004 9.17445
324 1 H 4.61746 11.7292 7.06733
325 2 C 17.2931 0.173097 11.827
326 2 C 18.0389 0.544942 13.0999
327 4 O 18.4661 1.81996 13.0247
328 1 H 17.8981 0.46113 10.9428
329 1 H 17.1903 -0.873151 11.7037
330 1 H 16.3138 0.58446 11.7125
331 1 H -1.07634 -0.196125 13.187
332 1 H 17.3756 0.404776 13.9602
333 1 H -0.934015 2.03282 13.8135
334 2 C 1.76232 6.47477 12.7968
335 2 C 2.14018 5.89386 14.1802
336 4 O 1.00875 5.48733 14.936
337 1 H 2.58986 6.48811 12.0616
338 1 H 1.0497 5.8166 12.3281
339 1 H 1.30466 7.48471 12.8321
340 1 H 2.8571 6.53564 14.7669
341 1 H 2.69618 4.97955 14.0048
342 1 H 0.388834 6.18527 15.2802
343 2 C 3.95053 15.55 12.7964
344 2 C 4.77236 15.0625 13.9288
345 4 O 5.98741 15.8239 13.9577
346 1 H 3.17851 14.8516 12.5721
347 1 H 3.47293 16.4963 12.948
348 1 H 4.63179 15.7611 11.9172
349 1 H 4.956 13.9679 13.7152
350 1 H 4.298 15.1331 14.9077
351 1 H 6.24632 15.9286 14.8846
352 2 C 4.33524 1.009 15.6751
353 2 C 5.00231 1.77043 16.7696
354 4 O 4.6163 3.10769 16.6973
355 1 H 4.52062 1.489 14.7064
356 1 H 4.7136 -0.00824163 15.6488
357 1 H 3.22663 0.979839 15.7987
358 1 H 6.09708 1.61382 16.732
359 1 H 4.7339 1.39731 17.7763
360 1 H 4.89488 3.51388 17.5038
361 2 C 15.5157 17.8129 8.79776
362 2 C 14.0595 18.1057 9.18255
363 4 O 13.5666 -0.585395 8.60073
364 1 H 16.0849 -1.16907 8.67019
365 1 H 16.0048 17.2219 9.60992
366 1 H 15.4641 17.2828 7.85801
367 1 H 13.9676 18.2225 10.2453
368 1 H 13.369 17.3184 8.79129
369 1 H 13.6938 -0.662953 7.65739
370 2 C 12.7727 3.83966 8.6217
371 2 C 11.8609 4.86485 7.94711
372 4 O 11.8262 6.06164 8.69716
373 1 H 12.4627 3.92052 9.68396
374 1 H 12.6961 2.81269 8.25321
375 1 H 13.7914 4.22272 8.7147
376 1 H 10.916 4.36966 8.04184
377 1 H 12.0806 5.08702 6.89256
378 1 H 12.3116 6.69463 8.18419
379 2 C -0.02919 7.14312 2.57491
380 2 C 0.505525 6.45201 3.79086
381 4 O 1.43922 7.3344 4.34966
382 1 H 0.824411 7.58421 2.05761
383 1 H -0.534336 6.49099 1.84104
384 1 H -0.676673 7.95503 2.82934
385 1 H 0.92538 5.4649 3.63178
386 1 H -0.334079 6.28681 4.52794
387 1 H 1.76235 7.05512 5.20138
388 2 C 16.989 14.0594 12.7708
389 2 C 16.7441 15.3294 11.98
390 4 O 17.1549 16.5769 12.4836
391 1 H 16.4774 14.1321 13.7161
392 1 H 16.5854 13.1576 12.3007
393 1 H 18.0435 13.9189 12.9489
394 1 H 15.6928 15.4625 11.8784
395 1 H 17.1625 15.1968 10.9817
396 1 H 18.0738 16.6867 12.3284
397 2 C 0.0159462 10.213 8.94093
398 2 C 0.648785 10.3361 10.3031
399 4 O 1.55071 9.21397 10.5418
400 1 H -0.664514 9.40166 8.8825
401 1 H -0.626546 11.0738 8.73814
402 1 H 0.742541 10.1618 8.17077
403 1 H -0.0544377 10.3073 11.1659
404 1 H 1.1517 11.2956 10.3322
405 1 H 1.79115 9.44672 11.4522
406 2 C 0.577749 13.2055 17.0679
407 2 C 0.256797 11.8803 16.4408
408 4 O -0.0144938 11.9084 15.1044
409 1 H 1.35802 13.8017 16.5449
410 1 H -0.18583 13.9692 17.1568
411 1 H 0.844939 13.059 18.1034
412 1 H -0.422455 11.214 16.9103
413 1 H 1.15597 11.3016 16.5682
414 1 H -0.979478 11.8889 15.0075
415 2 C 9.57507 6.08086 5.00306
416 2 C 9.64009 7.35445 5.86413
417 4 O 10.6498 8.25583 5.3924
418 1 H 10.5719 5.71495 4.75473
419 1 H 8.94685 5.32233 5.54312
420 1 H 9.08598 6.25955 4.04301
421 1 H 9.97814 7.12878 6.87272
422 1 H 8.79226 7.99112 5.98714
423 1 H 10.5798 8.29525 4.41701
424 2 C 5.66621 13.7944 2.13355
425 2 C 4.2476 14.2519 1.89044
426 4 O 3.27122 13.8735 2.91575
427 1 H 5.77816 12.7278 2.0279
428 1 H 6.29058 14.3238 1.48041
429 1 H 5.90008 13.8934 3.20413
430 1 H 3.80503 13.9158 0.924578
431 1 H 4.14952 15.3617 1.81495
432 1 H 2.71594 13.1317 2.62898
433 2 C -1.62469 4.7283 11.8533
434 2 C -1.18383 3.94983 10.6457
435 4 O 0.18643 4.16577 10.265
436 1 H -1.92494 5.787 11.6075
437 1 H 17.4327 4.19812 12.3686
438 1 H -0.86963 4.69046 12.6464
439 1 H 18.0915 4.13635 9.8737
440 1 H -1.21521 2.83464 10.8563
441 1 H 0.541629 5.04929 10.0503
442 2 C 14.849 3.91283 17.5247
443 2 C 13.8954 4.59909 16.5444
444 4 O 12.9375 3.70963 15.9941
445 1 H 15.7715 3.57758 17.106
446 1 H 14.9778 4.48102 -1.48332
447 1 H 14.3263 3.01224 17.8223
448 1 H 14.4726 4.97775 15.7189
449 1 H 13.3742 5.42518 17.0325
450 1 H 12.7184 4.09834 15.1495
ITEM: TIMESTEP
8000
ITEM: NUMBER OF ATOMS
450
ITEM: BOX BOUNDS pp pp pp
-1.5186860085978200e+00 1.8443686008597872e+01
-1.5186860085978200e+00 1.8443686008597872e+01
-1.5186860085978200e+00 1.8443686008597872e+01
ITEM: ATOMS id type element x y z
1 2 C 12.9198 6.19555 1.64615
2 2 C 12.5945 7.66323 1.56805
3 4 O 11.3218 8.00477 2.25637
4 1 H 13.9225 6.09764 1.27535
5 1 H 12.8663 5.78929 2.66468
6 1 H 12.2761 5.59324 0.998467
7 1 H 12.4998 8.05921 0.558712
8 1 H 13.4273 8.1546 2.05649
9 1 H 10.6682 7.69809 1.60884
10 2 C 13.9695 13.7357 18.5264
11 2 C 15.1785 13.4102 17.6467
12 4 O 15.6237 12.0327 17.5773
13 1 H 14.0142 13.0995 -0.586757
14 1 H 13.9944 14.7536 -1.09459
15 1 H 13.0499 13.6046 17.9551
16 1 H 16.0153 13.9814 17.9913
17 1 H 14.9668 13.7292 16.6651
18 1 H 15.2147 11.6666 16.7987
19 2 C 13.5482 1.1734 4.07821
20 2 C 13.6932 0.394477 5.39118
21 4 O 12.9955 -0.821714 5.45782
22 1 H 12.631 1.77034 3.95873
23 1 H 14.4196 1.82419 3.97938
24 1 H 13.5076 0.449383 3.29403
25 1 H 13.4536 1.08243 6.18224
26 1 H 14.7219 0.0977347 5.56362
27 1 H 12.0453 -0.680763 5.35352
28 2 C 15.6845 6.48034 9.33821
29 2 C 16.9029 6.87539 8.47944
30 4 O 17.9131 5.88717 8.48284
31 1 H 15.976 6.2815 10.3828
32 1 H 14.9623 7.33734 9.33642
33 1 H 15.3653 5.51609 8.87942
34 1 H 17.3668 7.82826 8.80063
35 1 H 16.6285 7.01426 7.44251
36 1 H -1.45312 6.01917 9.23015
37 2 C 1.48628 0.535398 11.9312
38 2 C 1.87654 1.85327 11.3325
39 4 O 2.56266 1.89409 10.3163
40 1 H 0.438039 0.273248 11.5864
41 1 H 2.14453 -0.292203 11.6432
42 1 H 1.52133 0.637885 12.9948
43 1 H 1.63159 2.7666 11.821
44 1 H 18.0193 0.701807 -0.219233
45 1 H 8.19464 4.62162 7.17889
46 2 C 13.4928 14.3278 8.39458
47 2 C 12.2766 15.3142 8.10344
48 4 O 12.5572 16.1214 6.98087
49 1 H 13.5493 14.1292 9.46103
50 1 H 13.3852 13.4064 7.83295
51 1 H 14.4727 14.7631 8.18336
52 1 H 12.2622 15.9762 8.9791
53 1 H 11.3743 14.6947 8.03171
54 1 H 11.7218 16.3615 6.56539
55 2 C 13.1127 3.36962 12.4187
56 2 C 11.9091 4.27929 12.3717
57 4 O 11.7477 4.90697 13.7015
58 1 H 13.058 2.57201 13.1876
59 1 H 13.302 2.90165 11.4472
60 1 H 13.9998 4.07237 12.448
61 1 H 10.9957 3.793 11.9973
62 1 H 12.2293 5.13126 11.6729
63 1 H 10.8231 5.20573 13.8068
64 2 C 8.527 9.31518 10.0029
65 2 C 9.25494 8.48336 8.91742
66 4 O 8.90874 7.08319 8.96038
67 1 H 8.72698 8.88545 11.0098
68 1 H 8.87487 10.3311 10.0544
69 1 H 7.44374 9.35984 9.85737
70 1 H 10.3216 8.56843 9.15188
71 1 H 9.13773 8.95127 7.93194
72 1 H 9.77252 6.63006 8.84767
73 2 C 5.90892 0.960253 6.83268
74 2 C 6.27541 2.49206 6.663
75 4 O 6.69036 2.94745 7.91105
76 1 H 4.89491 0.963817 7.2507
77 1 H 5.99571 0.512324 5.87078
78 1 H 6.57333 0.436512 7.49351
79 1 H 5.32789 2.93596 6.29138
80 1 H 7.01513 2.7236 5.89104
81 1 H 6.76042 3.8927 7.99022
82 2 C 4.11376 10.6522 12.5518
83 2 C 2.91541 11.0257 13.5346
84 4 O 1.75046 10.2943 13.3217
85 1 H 4.35723 9.64787 12.7308
86 1 H 3.9693 10.8893 11.473
87 1 H 4.97755 11.253 12.9667
88 1 H 2.68046 12.0881 13.3873
89 1 H 3.30761 10.8816 14.5635
90 1 H 1.03453 10.8417 13.7533
91 2 C 8.43618 3.7739 14.6827
92 2 C 8.33953 5.2163 14.858
93 4 O 9.32838 5.9415 14.3261
94 1 H 7.60676 3.35529 15.1671
95 1 H 8.66209 3.32555 13.768
96 1 H 9.34602 3.49764 15.2725
97 1 H 8.31568 5.31278 15.9336
98 1 H 7.43728 5.61709 14.3666
99 1 H 9.11928 6.07922 13.4188
100 2 C 8.06636 13.5284 9.71845
101 2 C 8.36861 14.5853 10.826
102 4 O 8.19075 14.0605 12.1459
103 1 H 7.09234 13.0706 9.83933
104 1 H 7.99086 14.0163 8.72322
105 1 H 8.87305 12.7561 9.74724
106 1 H 7.73637 15.448 10.6192
107 1 H 9.39473 14.9199 10.6628
108 1 H 7.87334 14.7836 12.6998
109 2 C 3.30102 14.4045 6.35789
110 2 C 4.53376 13.929 5.56774
111 4 O 4.51077 12.6365 5.05689
112 1 H 2.42347 14.1212 5.77353
113 1 H 3.29778 13.9277 7.31589
114 1 H 3.43777 15.4137 6.63261
115 1 H 5.46314 13.9102 6.19877
116 1 H 4.65467 14.6102 4.72057
117 1 H 4.04478 12.6175 4.23314
118 2 C 1.2901 5.79364 7.10728
119 2 C 1.72691 6.73058 8.20311
120 4 O 0.719352 6.85209 9.31719
121 1 H 0.645599 6.289 6.39213
122 1 H 2.13668 5.35634 6.57668
123 1 H 0.739349 4.93897 7.48788
124 1 H 1.83497 7.7598 7.8225
125 1 H 2.70366 6.3974 8.64988
126 1 H 0.761039 7.71125 9.78274
127 2 C 8.01084 -1.48408 17.9136
128 2 C 6.65551 17.8582 17.4715
129 4 O 6.66508 16.5355 16.9006
130 1 H 7.83773 -0.48101 18.3438
131 1 H 8.51434 17.8532 -1.35374
132 1 H 8.68047 -1.27256 17.0555
133 1 H 6.20985 18.5002 16.7184
134 1 H 6.08691 17.8235 18.3668
135 1 H 7.55137 16.3892 16.5803
136 2 C 6.8765 10.2987 4.81385
137 2 C 8.17981 10.7489 4.11379
138 4 O 8.33743 10.2751 2.77493
139 1 H 6.86745 9.24345 5.14518
140 1 H 6.67407 10.877 5.71644
141 1 H 5.97005 10.3888 4.24623
142 1 H 9.06405 10.3685 4.62139
143 1 H 8.29312 11.8198 3.97533
144 1 H 8.4635 9.33424 2.90204
145 2 C 8.72481 -1.49802 3.17298
146 2 C 9.20857 17.7546 4.45938
147 4 O 10.4543 18.1307 4.94683
148 1 H 8.01423 17.7744 2.73719
149 1 H 8.27573 -0.566096 3.35927
150 1 H 9.52779 -1.52282 2.41305
151 1 H 9.20731 16.7301 4.15323
152 1 H 8.4731 18.0698 5.2418
153 1 H 11.1051 17.821 4.3102
154 2 C -0.317095 1.45545 16.7895
155 2 C 0.415123 2.70269 16.3641
156 4 O 0.437453 2.84322 14.9463
157 1 H -0.0737872 0.544476 16.2349
158 1 H -0.116151 1.17286 17.8353
159 1 H -1.39191 1.56924 16.6743
160 1 H 1.4379 2.72885 16.7379
161 1 H -0.13487 3.54785 16.7712
162 1 H 0.670681 3.7869 14.8396
163 2 C -1.41152 10.4249 4.04126
164 2 C -0.155925 10.8551 4.77239
165 4 O 1.02462 10.1557 4.39892
166 1 H -1.62256 9.38087 4.32511
167 1 H 17.6647 11.0475 4.22756
168 1 H -1.21563 10.3329 2.97049
169 1 H -0.289012 10.8218 5.89199
170 1 H 0.114594 11.8905 4.50008
171 1 H 1.16351 9.30026 4.82491
172 2 C 9.51098 7.63675 18.5075
173 2 C 10.7414 6.92638 17.8746
174 4 O 11.0898 5.88673 -1.20358
175 1 H 8.53408 7.10988 18.3947
176 1 H 9.64893 7.90029 -0.4041
177 1 H 9.28724 8.48108 17.8301
178 1 H 11.5447 7.63991 17.705
179 1 H 10.4106 6.59436 16.935
180 1 H 11.8227 5.41766 18.2959
181 2 C 0.84369 0.339673 7.75966
182 2 C 1.42725 1.65558 7.36675
183 4 O 0.491709 2.67724 7.94072
184 1 H 0.0381801 0.152068 7.04168
185 1 H 1.53341 -0.54855 7.64062
186 1 H 0.329781 0.364055 8.69741
187 1 H 1.69454 1.7646 6.34236
188 1 H 2.26482 1.86663 8.00809
189 1 H -0.256453 2.72602 7.35059
190 2 C 5.91143 -0.430534 10.1956
191 2 C 6.26721 18.4221 11.1333
192 4 O 5.36237 18.1562 12.185
193 1 H 6.67423 -0.484642 9.37881
194 1 H 4.95621 -0.607318 9.72927
195 1 H 5.82887 0.525141 10.6831
196 1 H 7.23631 -1.32109 11.5438
197 1 H 6.37711 17.5266 10.5143
198 1 H 5.77587 17.5092 12.7701
199 2 C 12.3409 14.8372 14.3348
200 2 C 11.3013 13.7216 14.1159
201 4 O 10.8975 13.7315 12.7365
202 1 H 12.7131 14.686 15.3737
203 1 H 13.1267 14.8767 13.6047
204 1 H 11.8493 15.8111 14.2938
205 1 H 10.4789 13.8727 14.8674
206 1 H 11.7773 12.7862 14.3619
207 1 H 9.90589 13.6334 12.75
208 2 C 0.789317 10.7413 1.01057
209 2 C 2.23506 10.4505 1.2606
210 4 O 2.76955 11.0512 2.48421
211 1 H 0.174373 10.0111 1.52368
212 1 H 0.473668 11.7642 1.19839
213 1 H 0.57755 10.5653 -0.0345148
214 1 H 2.775 10.8645 0.409443
215 1 H 2.39876 9.3809 1.32704
216 1 H 2.31112 10.6593 3.25784
217 2 C 15.5072 10.2992 14.8997
218 2 C 16.8825 10.3477 15.4923
219 4 O 17.4509 11.6208 15.5481
220 1 H 14.7914 11.0965 15.2382
221 1 H 15.6757 10.5108 13.8293
222 1 H 15.0625 9.34752 15.0491
223 1 H 17.5222 9.73804 14.7757
224 1 H 16.9606 9.86835 16.4963
225 1 H 17.0572 11.9484 16.3915
226 2 C 15.8716 2.36388 9.01548
227 2 C 16.9998 2.06422 8.13735
228 4 O 17.2191 3.17479 7.26631
229 1 H 14.8969 2.10602 8.60911
230 1 H 15.8889 1.83624 9.99431
231 1 H 15.987 3.36976 9.34915
232 1 H 16.893 1.18837 7.53086
233 1 H 17.8983 1.82348 8.68148
234 1 H 17.5814 3.95082 7.72544
235 2 C 14.9552 -0.196583 -0.384236
236 2 C 16.1458 0.68898 0.038438
237 4 O 17.3919 -0.0035575 -0.261308
238 1 H 14.7555 -0.372476 -1.44896
239 1 H 15.1721 -1.21052 -0.00339927
240 1 H 14.0495 0.0720404 0.168072
241 1 H 16.2378 0.848648 1.12981
242 1 H 16.158 1.61221 -0.54124
243 1 H 0.232973 3.59845 9.30884
244 2 C 13.2764 14.954 2.39917
245 2 C 12.9968 15.7723 3.64481
246 4 O 12.6474 17.1592 3.27631
247 1 H 13.5995 13.9448 2.68813
248 1 H 12.4173 14.9145 1.70508
249 1 H 13.7706 15.5722 1.65743
250 1 H 13.8277 15.7938 4.48387
251 1 H 12.328 15.2991 4.36224
252 1 H 12.9244 17.6862 4.01378
253 2 C 17.9313 6.0882 17.2286
254 2 C 17.6671 6.49045 15.8214
255 4 O -1.10029 7.10132 15.3101
256 1 H 18.5648 6.894 17.6818
257 1 H 17.0436 6.05385 17.8242
258 1 H -1.37537 5.19992 17.2892
259 1 H 16.7836 7.13854 15.7473
260 1 H 17.4424 5.60141 15.2337
261 1 H -1.35371 7.56733 14.512
262 2 C 0.940512 18.3093 3.98322
263 2 C 2.11474 17.2834 3.85135
264 4 O 1.51069 15.9784 3.52464
265 1 H 0.419279 18.4275 2.99824
266 1 H 0.202489 17.917 4.67445
267 1 H 1.28294 -0.702013 4.35988
268 1 H 2.59836 17.2879 4.8069
269 1 H 2.86266 17.5829 3.12124
270 1 H 2.04732 15.1348 3.50858
271 2 C 11.7552 0.873925 17.0917
272 2 C 12.3095 0.223143 15.8287
273 4 O 13.5402 0.849206 15.5038
274 1 H 11.039 0.337588 17.6779
275 1 H 12.587 1.16528 17.7443
276 1 H 11.2543 1.7903 16.8722
277 1 H 11.5963 0.301126 14.9907
278 1 H 12.5321 -0.853365 15.9069
279 1 H 13.4983 1.65678 15.9337
280 2 C 10.1622 1.59844 6.69746
281 2 C 9.86198 1.16469 8.11038
282 4 O 9.32042 2.10949 8.98403
283 1 H 10.6868 2.5444 6.64082
284 1 H 10.8202 0.899747 6.21109
285 1 H 9.30376 1.73503 6.04257
286 1 H 10.7959 0.866285 8.57792
287 1 H 9.20817 0.280326 8.08165
288 1 H 8.34444 2.14453 8.92045
289 2 C 6.33913 5.27939 10.4292
290 2 C 7.74935 5.00417 11.0264
291 4 O 8.39677 6.06017 11.7122
292 1 H 6.45978 5.85422 9.53074
293 1 H 5.89559 4.31335 10.1419
294 1 H 5.67113 5.82219 11.1414
295 1 H 8.39214 4.7122 10.1661
296 1 H 7.72122 4.12568 11.6665
297 1 H 8.80165 6.62042 11.019
298 2 C 14.444 10.1664 6.96415
299 2 C 13.3425 9.33222 7.51182
300 4 O 13.0381 8.10647 6.77328
301 1 H 14.6222 11.1299 7.47509
302 1 H 15.4118 9.63727 6.95824
303 1 H 14.3239 10.4957 5.91418
304 1 H 12.4518 9.96193 7.47473
305 1 H 13.5622 9.01319 8.51966
306 1 H 12.3873 8.34915 6.09703
307 2 C 12.6633 9.46294 13.1341
308 2 C 12.1992 8.94464 14.4381
309 4 O 12.8099 7.63145 14.6743
310 1 H 12.4933 8.86911 12.2373
311 1 H 12.2672 10.4872 12.915
312 1 H 13.7518 9.57299 13.2758
313 1 H 11.1198 8.85036 14.5134
314 1 H 12.6633 9.51585 15.2749
315 1 H 12.317 6.9068 14.249
316 2 C 4.99589 9.22242 8.00007
317 2 C 4.75461 10.6361 8.50819
318 4 O 5.13922 11.6599 7.59009
319 1 H 4.66138 8.51779 8.73534
320 1 H 4.41478 9.03113 7.09999
321 1 H 6.02472 9.05795 7.76231
322 1 H 5.39853 10.848 9.39872
323 1 H 3.70677 10.7056 8.81307
324 1 H 4.52822 11.5962 6.84041
325 2 C 17.1062 0.516381 11.9998
326 2 C 17.926 0.57897 13.2521
327 4 O -1.30423 1.83703 13.1334
328 1 H 17.8007 0.485805 11.1315
329 1 H 16.4931 -0.410517 11.9495
330 1 H 16.4251 1.36487 11.869
331 1 H -1.36629 -0.28837 13.1492
332 1 H 17.3317 0.488342 14.1763
333 1 H -0.847553 2.04471 13.9626
334 2 C 1.61201 6.60685 12.7129
335 2 C 2.03321 6.18475 14.0917
336 4 O 1.03571 5.5174 14.864
337 1 H 2.45061 7.13182 12.2726
338 1 H 1.51211 5.68167 12.1605
339 1 H 0.754077 7.26 12.5348
340 1 H 2.47277 6.97156 14.6774
341 1 H 2.79591 5.45109 13.9163
342 1 H 0.330983 6.09989 15.0835
343 2 C 3.86745 15.4423 12.8714
344 2 C 4.91817 15.0257 13.8748
345 4 O 6.25736 15.5574 13.6986
346 1 H 2.88114 14.8973 13.056
347 1 H 3.62694 16.562 13.047
348 1 H 4.00007 15.3447 11.7632
349 1 H 4.95146 13.9506 13.8757
350 1 H 4.63536 15.3124 14.8595
351 1 H 6.52656 15.8299 14.5756
352 2 C 4.46091 0.851822 15.7367
353 2 C 4.79847 1.42592 17.1039
354 4 O 4.72741 2.88251 17.0272
355 1 H 5.22475 0.91422 14.9681
356 1 H 4.29009 -0.225009 15.8213
357 1 H 3.60906 1.32572 15.2922
358 1 H 5.82278 1.15784 17.3402
359 1 H 4.13463 1.09882 17.8983
360 1 H 5.03759 3.29245 17.8182
361 2 C 15.5787 18.1153 9.26542
362 2 C 14.1983 -1.15975 9.39613
363 4 O 13.8485 -0.514765 8.20013
364 1 H 16.3989 -1.21703 9.55853
365 1 H 15.6214 17.2658 9.92667
366 1 H 15.6101 17.6945 8.25276
367 1 H 14.2322 -0.405791 10.1931
368 1 H 13.3742 18.1549 9.71122
369 1 H 13.664 -1.20236 7.52148
370 2 C 12.2591 3.54286 8.89118
371 2 C 11.7552 4.77669 8.06766
372 4 O 11.8158 6.05207 8.70739
373 1 H 11.4833 3.14757 9.48718
374 1 H 12.5833 2.81863 8.16172
375 1 H 13.1504 3.74175 9.48341
376 1 H 10.7007 4.52603 7.76719
377 1 H 12.2755 4.8606 7.10076
378 1 H 12.4891 6.59472 8.22718
379 2 C -0.0384158 7.44837 2.67435
380 2 C 0.715603 6.56138 3.65834
381 4 O 1.76882 7.30871 4.27127
382 1 H 0.264081 7.15749 1.67464
383 1 H -1.13425 7.42371 2.77572
384 1 H 0.219828 8.48342 2.78695
385 1 H 1.17554 5.70793 3.1654
386 1 H 0.0602057 6.19212 4.42925
387 1 H 2.42418 6.74408 4.6624
388 2 C 17.1284 14.0294 12.7708
389 2 C 16.6845 15.2625 12.029
390 4 O 17.019 16.4378 12.762
391 1 H 16.6372 13.9847 13.7539
392 1 H 16.7414 13.1564 12.2464
393 1 H 18.1938 13.9577 12.9881
394 1 H 15.5766 15.2272 11.8847
395 1 H 17.1166 15.389 11.0192
396 1 H 17.1664 16.0612 13.6068
397 2 C 0.0735565 10.3447 8.97101
398 2 C 1.01575 10.5952 10.0991
399 4 O 1.43778 9.36578 10.5925
400 1 H -0.716714 9.62645 9.27747
401 1 H -0.583006 11.2088 8.78967
402 1 H 0.486496 9.9305 8.02092
403 1 H 0.638827 11.1373 10.9508
404 1 H 1.86789 11.1907 9.72442
405 1 H 1.65278 9.52624 11.513
406 2 C 0.479745 13.3898 16.8683
407 2 C 0.557362 11.9744 16.3815
408 4 O 0.172812 11.8572 14.9234
409 1 H 1.05671 14.1115 16.2798
410 1 H -0.579626 13.7744 16.9305
411 1 H 0.792312 13.4799 17.9249
412 1 H -0.00928255 11.2112 16.908
413 1 H 1.62986 11.6325 16.4664
414 1 H -0.791059 11.9158 14.9988
415 2 C 9.55108 6.09368 4.98131
416 2 C 9.81031 7.27947 5.81025
417 4 O 10.7484 8.26923 5.23151
418 1 H 10.4249 5.74704 4.46845
419 1 H 9.09245 5.31832 5.57744
420 1 H 8.79198 6.32149 4.24199
421 1 H 10.3301 6.98707 6.74167
422 1 H 8.94215 7.90347 6.08964
423 1 H 10.8768 8.14022 4.28759
424 2 C 5.4211 13.7542 2.11882
425 2 C 3.99246 14.1935 1.75569
426 4 O 3.05003 13.7669 2.7033
427 1 H 5.35698 12.6749 2.46444
428 1 H 6.07785 13.7966 1.23636
429 1 H 5.86016 14.3227 2.95212
430 1 H 3.66633 13.8332 0.823509
431 1 H 3.89815 15.2761 1.70381
432 1 H 2.67654 12.9038 2.47326
433 2 C 18.1903 4.2905 11.8885
434 2 C -1.33092 3.66286 10.5232
435 4 O -0.0388244 4.08872 10.1245
436 1 H 18.134 5.32574 12.0102
437 1 H 17.1943 3.98054 12.0536
438 1 H -1.23604 3.84937 12.7632
439 1 H 17.8895 4.09754 9.80683
440 1 H -1.32546 2.59352 10.5426
441 1 H 0.218915 5.01713 10.1814
442 2 C 14.9032 4.11712 17.0232
443 2 C 13.8924 4.83275 16.1798
444 4 O 12.9624 3.76631 15.8208
445 1 H 15.4428 3.47927 16.3287
446 1 H 15.6301 4.73668 17.5637
447 1 H 14.4453 3.53238 17.8435
448 1 H 14.3619 5.25703 15.291
449 1 H 13.3031 5.62208 16.6663
450 1 H 12.5592 3.96426 14.9293
