LAMMPS (10 Sep 2025)
  using 6 OpenMP thread(s) per MPI task
# ------------------------------------------------------------------
# LAMMPS input: NVT MD with MACE-OFF23 (medium) ML interatomic potential
# Model: MACE-OFF23_medium.model-lammps.pt
#
# EDIT THESE BEFORE RUNNING:
#   1. "data.system"      -> your actual LAMMPS data file
#   2. the element list on the pair_coeff line -> must match, in order,
#      the atom TYPES you defined in your data file (a subset of the
#      10 elements MACE-OFF23 was trained on: H C N O F P S Cl Br I)
#   3. group/region/thermodynamic settings -> your actual system
# ------------------------------------------------------------------

units           metal
boundary        p p p
atom_style      atomic
atom_modify     map yes
newton          on off          # "newton on off" = newton_pair on, newton_bond off.
                                 # pair_style mace requires newton pair ON.
                                 # KOKKOS full-neighbor-list mode requires
                                 # newton bond OFF (moot anyway: atom_style
                                 # atomic has no bonded terms).

# ---- geometry / topology ----
read_data       data.system
Reading data file ...
  orthogonal box = (0 0 0) to (16.925 16.925 16.925)
  1 by 1 by 1 MPI processor grid
  reading atoms ...
  450 atoms
  read_data CPU = 0.011 seconds

# ---- MACE pair style ----
# no_domain_decomposition: recommended for a single MPI rank + threading
# (typical for small-to-medium systems). Drop it if you are running
# genuine multi-rank domain decomposition on a large system.
pair_style      mace no_domain_decomposition
pair_coeff      * * MACE-OFF23_medium.model-lammps.pt H C N O

# ---- neighbor settings ----
neighbor        2.0 bin
neigh_modify    every 1 delay 0 check yes

# ---- timestep ----
# MACE-OFF23 is an all-electron organic-chemistry potential with
# explicit H; use a conservative fs-scale timestep.
timestep        0.0005          # 0.5 fs

# ---- common variables ----
variable        Tinit  equal 300.0
variable        Trun   equal 300.0
variable        Patm   equal 1.01325     # 1 atm in bar (metal units use bar)

thermo_style    custom step temp pe ke etotal press vol density
thermo          10

# ------------------------------------------------------------------
# Stage 0: energy minimization
# The packmol-packed box was placed with a finite distance tolerance,
# not energy-minimized, so there can be close contacts / large initial
# forces. Minimize before assigning velocities or running dynamics.
# ------------------------------------------------------------------
min_style       cg
minimize        1.0e-6 1.0e-8 1000 10000
Generated 0 of 6 mixed pair_coeff terms from geometric mixing rule
Neighbor list info ...
  update: every = 1 steps, delay = 0 steps, check = yes
  max neighbors/atom: 2000, page size: 100000
  master list distance cutoff = 12
  ghost atom cutoff = 12
  binsize = 6, bins = 3 3 3
  1 neighbor lists, perpetual/occasional/extra = 1 0 0
  (1) pair mace, perpetual
      attributes: full, newton on
      pair build: full/bin/atomonly
      stencil: full/bin/3d
      bin: standard
Per MPI rank memory allocation (min/avg/max) = 10.09 | 10.09 | 10.09 Mbytes
   Step          Temp          PotEng         KinEng         TotEng         Press          Volume        Density    
         0   0              4131202        0              4131202        9.0222892e+08  4848.2615      0.78893608   
        10   0             -211025.94      0             -211025.94      39336.066      4848.2615      0.78893608   
        13   0             -211028.24      0             -211028.24      44256.404      4848.2615      0.78893608   
Loop time of 38.5769 on 6 procs for 13 steps with 450 atoms

153.9% CPU use with 1 MPI tasks x 6 OpenMP threads

Minimization stats:
  Stopping criterion = energy tolerance
  Energy initial, next-to-last, final = 
      4131202.01730514  -211028.176952283  -211028.244470991
  Force two-norm initial, final = 1.8331115e+08 42.367849
  Force max component initial, final = 1.1869868e+08 17.196567
  Final line search alpha, max atom move = 0.00023013401 0.0039575147
  Iterations, force evaluations = 13 36

MPI task timing breakdown:
Section |  min time  |  avg time  |  max time  |%varavg| %total
---------------------------------------------------------------
Pair    | 38.575     | 38.575     | 38.575     |   0.0 | 99.99
Neigh   | 0          | 0          | 0          |   0.0 |  0.00
Comm    | 0.0012923  | 0.0012923  | 0.0012923  |   0.0 |  0.00
Output  | 4.2522e-05 | 4.2522e-05 | 4.2522e-05 |   0.0 |  0.00
Modify  | 0          | 0          | 0          |   0.0 |  0.00
Other   |            | 0.000681   |            |       |  0.00

Nlocal:            450 ave         450 max         450 min
Histogram: 1 0 0 0 0 0 0 0 0 0
Nghost:           6300 ave        6300 max        6300 min
Histogram: 1 0 0 0 0 0 0 0 0 0
Neighs:              0 ave           0 max           0 min
Histogram: 1 0 0 0 0 0 0 0 0 0
FullNghs:       301172 ave      301172 max      301172 min
Histogram: 1 0 0 0 0 0 0 0 0 0

Total # of neighbors = 301172
Ave neighs/atom = 669.27111
Neighbor list builds = 0
Dangerous builds = 0

reset_timestep  0

# ---- initial velocities (after minimization) ----
velocity        all create ${Tinit} 12345 mom yes rot yes dist gaussian
velocity        all create 300 12345 mom yes rot yes dist gaussian

# ------------------------------------------------------------------
# Stage 1: short NVT relaxation at fixed volume
# Lets local structure (bond lengths, close contacts) relax under
# real dynamics before the box is allowed to change size.
# ------------------------------------------------------------------
fix             1 all nvt temp ${Tinit} ${Trun} $(100.0*dt)
fix             1 all nvt temp 300 ${Trun} $(100.0*dt)
fix             1 all nvt temp 300 300 $(100.0*dt)
fix             1 all nvt temp 300 300 0.050000000000000002776
run             2000                     # 1 ps
Generated 0 of 6 mixed pair_coeff terms from geometric mixing rule
Per MPI rank memory allocation (min/avg/max) = 8.963 | 8.963 | 8.963 Mbytes
   Step          Temp          PotEng         KinEng         TotEng         Press          Volume        Density    
         0   300           -211028.24      17.411342     -211010.83      48092.287      4848.2615      0.78893608   
        10   519.19814     -211041.08      30.13312      -211010.95      36379.096      4848.2615      0.78893608   
        20   642.20079     -211048.67      37.271924     -211011.4       29285.349      4848.2615      0.78893608   
        30   681.65101     -211052.26      39.561528     -211012.7       19525.721      4848.2615      0.78893608   
        40   657.84431     -211052.44      38.17984      -211014.26      17257.812      4848.2615      0.78893608   
        50   719.11602     -211057.52      41.735915     -211015.78      13064.683      4848.2615      0.78893608   
        60   684.73483     -211057.11      39.740507     -211017.37      18691.119      4848.2615      0.78893608   
        70   722.97091     -211061.25      41.959645     -211019.29      18116.947      4848.2615      0.78893608   
        80   631.90999     -211057.96      36.674669     -211021.28      17613.862      4848.2615      0.78893608   
        90   638.83234     -211060.24      37.076427     -211023.16      15758.441      4848.2615      0.78893608   
       100   564.76472     -211057.72      32.777705     -211024.95      13220.094      4848.2615      0.78893608   
       110   574.22683     -211059.9       33.326865     -211026.57      15269.262      4848.2615      0.78893608   
       120   558.43019     -211060.61      32.410062     -211028.2       10153.261      4848.2615      0.78893608   
       130   544.72431     -211061.33      31.614603     -211029.72      11993.798      4848.2615      0.78893608   
       140   531.69663     -211062.09      30.858505     -211031.23      15953.42       4848.2615      0.78893608   
       150   532.0225      -211063.59      30.877418     -211032.71      17743.801      4848.2615      0.78893608   
       160   516.87442     -211064.25      29.998257     -211034.25      21816.993      4848.2615      0.78893608   
       170   478.24876     -211063.45      27.756508     -211035.7       14874.68       4848.2615      0.78893608   
       180   481.45025     -211065.01      27.942316     -211037.07      12900.016      4848.2615      0.78893608   
       190   466.96592     -211065.49      27.101677     -211038.39      8798.6005      4848.2615      0.78893608   
       200   447.48903     -211065.61      25.971281     -211039.64      11664.513      4848.2615      0.78893608   
       210   439.95926     -211066.36      25.53427      -211040.82      13844.47       4848.2615      0.78893608   
       220   440.57856     -211067.55      25.570213     -211041.98      11765.007      4848.2615      0.78893608   
       230   410.37447     -211066.9       23.817233     -211043.09      14592.919      4848.2615      0.78893608   
       240   398.95156     -211067.24      23.154273     -211044.09      9965.107       4848.2615      0.78893608   
       250   401.35051     -211068.36      23.293502     -211045.07      11983.39       4848.2615      0.78893608   
       260   376.40438     -211067.82      21.845684     -211045.98      7741.3637      4848.2615      0.78893608   
       270   377.21657     -211068.75      21.892822     -211046.86      7632.4446      4848.2615      0.78893608   
       280   360.7135      -211068.62      20.93502      -211047.68      8126.7595      4848.2615      0.78893608   
       290   362.13363     -211069.51      21.017441     -211048.49      10691.015      4848.2615      0.78893608   
       300   349.47117     -211069.53      20.28254      -211049.25      13439.508      4848.2615      0.78893608   
       310   358.42955     -211070.78      20.802465     -211049.98      9561.1647      4848.2615      0.78893608   
       320   361.1474      -211071.66      20.960203     -211050.7       6117.335       4848.2615      0.78893608   
       330   353.12287     -211071.9       20.494477     -211051.41      2510.5954      4848.2615      0.78893608   
       340   346.11801     -211072.18      20.087929     -211052.1       2214.2228      4848.2615      0.78893608   
       350   327.74464     -211071.75      19.02158      -211052.73      4159.3785      4848.2615      0.78893608   
       360   337.06818     -211072.91      19.562698     -211053.34      6475.8765      4848.2615      0.78893608   
       370   318.77655     -211072.42      18.501091     -211053.92      6697.1643      4848.2615      0.78893608   
       380   328.91057     -211073.56      19.089248     -211054.47      8940.0796      4848.2615      0.78893608   
       390   324.33678     -211073.84      18.823795     -211055.02      3385.6225      4848.2615      0.78893608   
       400   340.75914     -211075.35      19.776912     -211055.57      5447.6666      4848.2615      0.78893608   
       410   330.16708     -211075.26      19.162173     -211056.1       941.52891      4848.2615      0.78893608   
       420   335.73606     -211076.09      19.485384     -211056.61      7343.3284      4848.2615      0.78893608   
       430   336.36681     -211076.66      19.521991     -211057.14      8887.6527      4848.2615      0.78893608   
       440   311.62717     -211075.68      18.086157     -211057.59      9298.5587      4848.2615      0.78893608   
       450   323.9763      -211076.87      18.802873     -211058.07      9090.1149      4848.2615      0.78893608   
       460   299.30129     -211075.93      17.37079      -211058.56      1657.5799      4848.2615      0.78893608   
       470   303.91232     -211076.66      17.638404     -211059.02      6023.0075      4848.2615      0.78893608   
       480   299.09898     -211076.82      17.359048     -211059.46      1910.7665      4848.2615      0.78893608   
       490   298.18575     -211077.17      17.306047     -211059.87      6418.7377      4848.2615      0.78893608   
       500   290.67591     -211077.09      16.870192     -211060.22      4572.7977      4848.2615      0.78893608   
       510   289.0971      -211077.3       16.778561     -211060.53      3056.3619      4848.2615      0.78893608   
       520   286.00431     -211077.44      16.599063     -211060.84      6392.4677      4848.2615      0.78893608   
       530   274.86178     -211077.04      15.952375     -211061.08      3147.5498      4848.2615      0.78893608   
       540   294.89691     -211078.45      17.115169     -211061.33      7030.3386      4848.2615      0.78893608   
       550   291.71882     -211078.54      16.93072      -211061.61      2221.24        4848.2615      0.78893608   
       560   299.7954      -211079.28      17.399467     -211061.88      3976.783       4848.2615      0.78893608   
       570   292.01603     -211079.03      16.94797      -211062.08      3290.2925      4848.2615      0.78893608   
       580   301.09706     -211079.79      17.475012     -211062.32      3413.1799      4848.2615      0.78893608   
       590   291.04964     -211079.4       16.891882     -211062.51      5484.2947      4848.2615      0.78893608   
       600   300.4737      -211080.15      17.438834     -211062.71      2246.0392      4848.2615      0.78893608   
       610   285.7877      -211079.49      16.586491     -211062.9       5052.7284      4848.2615      0.78893608   
       620   275.88529     -211079.05      16.011776     -211063.04      1300.3147      4848.2615      0.78893608   
       630   291.66194     -211080.12      16.927419     -211063.2       615.24516      4848.2615      0.78893608   
       640   254.73332     -211078.06      14.784163     -211063.28      465.91719      4848.2615      0.78893608   
       650   258.86577     -211078.35      15.024001     -211063.33      636.42053      4848.2615      0.78893608   
       660   261.55208     -211078.55      15.179909     -211063.37      5540.9524      4848.2615      0.78893608   
       670   267.88995     -211078.92      15.547745     -211063.37      4481.5881      4848.2615      0.78893608   
       680   272.14076     -211079.12      15.794453     -211063.32      6597.9796      4848.2615      0.78893608   
       690   283.09227     -211079.69      16.430054     -211063.26      1127.3854      4848.2615      0.78893608   
       700   288.69068     -211079.92      16.754974     -211063.17      2095.65        4848.2615      0.78893608   
       710   276.86774     -211079.12      16.068796     -211063.05      1986.1616      4848.2615      0.78893608   
       720   288.49913     -211079.66      16.743856     -211062.92      4250.4057      4848.2615      0.78893608   
       730   280.93134     -211079.05      16.304639     -211062.74      5857.0822      4848.2615      0.78893608   
       740   274.48213     -211078.48      15.93034      -211062.55      5351.3976      4848.2615      0.78893608   
       750   298.42435     -211079.7       17.319894     -211062.38      4257.5221      4848.2615      0.78893608   
       760   311.44312     -211080.27      18.075475     -211062.2       1319.0169      4848.2615      0.78893608   
       770   303.5395      -211079.62      17.616767     -211062         994.65666      4848.2615      0.78893608   
       780   324.44367     -211080.68      18.829999     -211061.85     -888.24302      4848.2615      0.78893608   
       790   313.54306     -211079.87      18.197351     -211061.67      1309.2031      4848.2615      0.78893608   
       800   305.11159     -211079.22      17.708007     -211061.51      1384.1036      4848.2615      0.78893608   
       810   305.04998     -211079.09      17.704431     -211061.39      4939.1544      4848.2615      0.78893608   
       820   290.0877      -211078.06      16.836054     -211061.23      2494.3568      4848.2615      0.78893608   
       830   307.11186     -211078.9       17.824098     -211061.08      4239.2076      4848.2615      0.78893608   
       840   298.20841     -211078.27      17.307361     -211060.96      535.5692       4848.2615      0.78893608   
       850   318.88782     -211079.37      18.507549     -211060.86      3554.2039      4848.2615      0.78893608   
       860   325.34192     -211079.61      18.882131     -211060.73      2196.4376      4848.2615      0.78893608   
       870   335.57649     -211080.13      19.476123     -211060.66      5025.2261      4848.2615      0.78893608   
       880   334.15225     -211080         19.393463     -211060.6       6164.7099      4848.2615      0.78893608   
       890   308.68207     -211078.5       17.91523      -211060.58      5454.6455      4848.2615      0.78893608   
       900   321.5694      -211079.26      18.663182     -211060.6       5974.8509      4848.2615      0.78893608   
       910   311.61566     -211078.7       18.085489     -211060.61      1151.6458      4848.2615      0.78893608   
       920   314.00645     -211078.88      18.224245     -211060.65      5075.0373      4848.2615      0.78893608   
       930   295.2486      -211077.86      17.135581     -211060.73      842.68728      4848.2615      0.78893608   
       940   311.63587     -211078.9       18.086662     -211060.81      4597.6032      4848.2615      0.78893608   
       950   309.57366     -211078.84      17.966976     -211060.88      2097.5966      4848.2615      0.78893608   
       960   305.07838     -211078.67      17.70608      -211060.96      3805.2376      4848.2615      0.78893608   
       970   319.77154     -211079.63      18.558839     -211061.07      2619.9633      4848.2615      0.78893608   
       980   307.71545     -211079.01      17.859129     -211061.16      926.90569      4848.2615      0.78893608   
       990   318.23581     -211079.73      18.469708     -211061.26      2991.6853      4848.2615      0.78893608   
      1000   310.83867     -211079.45      18.040394     -211061.41      1941.2321      4848.2615      0.78893608   
      1010   317.02979     -211080         18.399713     -211061.6       5562.6256      4848.2615      0.78893608   
      1020   309.62204     -211079.74      17.969783     -211061.77      3971.5784      4848.2615      0.78893608   
      1030   313.30608     -211080.15      18.183597     -211061.97      5281.5938      4848.2615      0.78893608   
      1040   315.96231     -211080.52      18.337759     -211062.18      4648.236       4848.2615      0.78893608   
      1050   298.14945     -211079.69      17.30394      -211062.38      4265.7003      4848.2615      0.78893608   
      1060   304.4686      -211080.27      17.670689     -211062.6       3892.6372      4848.2615      0.78893608   
      1070   300.88175     -211080.25      17.462516     -211062.79      1504.3223      4848.2615      0.78893608   
      1080   288.59682     -211079.73      16.749526     -211062.98      1862.5132      4848.2615      0.78893608   
      1090   291.15618     -211080.08      16.898066     -211063.18      1471.6051      4848.2615      0.78893608   
      1100   302.79252     -211080.95      17.573413     -211063.38      1089.5067      4848.2615      0.78893608   
      1110   281.52393     -211079.89      16.339031     -211063.55      2623.1415      4848.2615      0.78893608   
      1120   286.11229     -211080.32      16.605329     -211063.71     -84.288858      4848.2615      0.78893608   
      1130   296.79153     -211081.07      17.225129     -211063.84      2162.7833      4848.2615      0.78893608   
      1140   287.54294     -211080.65      16.688361     -211063.96     -1199.3684      4848.2615      0.78893608   
      1150   282.0747      -211080.45      16.370997     -211064.08      2129.5454      4848.2615      0.78893608   
      1160   280.35945     -211080.41      16.271447     -211064.14      870.07533      4848.2615      0.78893608   
      1170   278.14809     -211080.34      16.143104     -211064.19      4490.9964      4848.2615      0.78893608   
      1180   267.29259     -211079.77      15.513075     -211064.25      5847.8723      4848.2615      0.78893608   
      1190   285.64591     -211080.88      16.578262     -211064.3       4411.3871      4848.2615      0.78893608   
      1200   269.35017     -211079.93      15.632492     -211064.29      4035.3613      4848.2615      0.78893608   
      1210   273.08051     -211080.13      15.848993     -211064.28     -170.72484      4848.2615      0.78893608   
      1220   287.62822     -211080.92      16.69331      -211064.22      1987.9429      4848.2615      0.78893608   
      1230   272.32414     -211079.93      15.805095     -211064.13     -102.91931      4848.2615      0.78893608   
      1240   277.91972     -211080.16      16.12985      -211064.03      5651.7294      4848.2615      0.78893608   
      1250   277.25166     -211079.97      16.091078     -211063.88      2326.2009      4848.2615      0.78893608   
      1260   287.77429     -211080.43      16.701788     -211063.73      4718.1183      4848.2615      0.78893608   
      1270   279.10199     -211079.76      16.198467     -211063.56      2120.6157      4848.2615      0.78893608   
      1280   296.77027     -211080.61      17.223895     -211063.39     -907.653        4848.2615      0.78893608   
      1290   303.57404     -211080.81      17.618771     -211063.19      1957.2183      4848.2615      0.78893608   
      1300   290.45705     -211079.83      16.85749      -211062.98      876.05776      4848.2615      0.78893608   
      1310   308.05444     -211080.65      17.878803     -211062.78      7903.7198      4848.2615      0.78893608   
      1320   299.951       -211079.97      17.408498     -211062.56      4013.7453      4848.2615      0.78893608   
      1330   301.4649      -211079.86      17.496361     -211062.37      7888.0221      4848.2615      0.78893608   
      1340   306.20682     -211079.96      17.771572     -211062.19      1519.196       4848.2615      0.78893608   
      1350   317.53254     -211080.48      18.428892     -211062.05      4114.2961      4848.2615      0.78893608   
      1360   308.2161      -211079.78      17.888186     -211061.89      1143.3775      4848.2615      0.78893608   
      1370   323.10753     -211080.5       18.752452     -211061.75      2590.9144      4848.2615      0.78893608   
      1380   338.24975     -211081.29      19.631273     -211061.65      3787.4001      4848.2615      0.78893608   
      1390   306.79839     -211079.37      17.805905     -211061.56      3036.0604      4848.2615      0.78893608   
      1400   323.14401     -211080.28      18.754569     -211061.52      4858.8948      4848.2615      0.78893608   
      1410   324.16959     -211080.31      18.814092     -211061.5      -456.38761      4848.2615      0.78893608   
      1420   332.16594     -211080.81      19.278182     -211061.53      3754.0991      4848.2615      0.78893608   
      1430   334.05283     -211080.95      19.387693     -211061.57     -376.64751      4848.2615      0.78893608   
      1440   325.97107     -211080.56      18.918645     -211061.64      4089.7097      4848.2615      0.78893608   
      1450   327.15196     -211080.74      18.987182     -211061.75      1125.0803      4848.2615      0.78893608   
      1460   320.22901     -211080.46      18.585389     -211061.87      3150.6591      4848.2615      0.78893608   
      1470   320.40858     -211080.61      18.595811     -211062.02      4131.4446      4848.2615      0.78893608   
      1480   308.29141     -211080.09      17.892557     -211062.2       5358.5167      4848.2615      0.78893608   
      1490   320.94854     -211081.02      18.627149     -211062.39      6243.2906      4848.2615      0.78893608   
      1500   314.11796     -211080.84      18.230717     -211062.61      3443.8715      4848.2615      0.78893608   
      1510   291.71787     -211079.74      16.930665     -211062.81      2427.9867      4848.2615      0.78893608   
      1520   314.57611     -211081.27      18.257307     -211063.01      2163.2529      4848.2615      0.78893608   
      1530   299.23093     -211080.57      17.366707     -211063.2       2306.8339      4848.2615      0.78893608   
      1540   304.5173      -211081.09      17.673516     -211063.42      7038.7932      4848.2615      0.78893608   
      1550   299.75188     -211080.99      17.396941     -211063.59      4274.1065      4848.2615      0.78893608   
      1560   297.61153     -211081.06      17.27272      -211063.79      6350.0151      4848.2615      0.78893608   
      1570   298.59988     -211081.32      17.330082     -211063.99     -737.18942      4848.2615      0.78893608   
      1580   312.05861     -211082.3       18.111197     -211064.19     -725.89817      4848.2615      0.78893608   
      1590   297.84722     -211081.65      17.286399     -211064.36     -1196.3745      4848.2615      0.78893608   
      1600   298.9608      -211081.89      17.351029     -211064.54      1121.0567      4848.2615      0.78893608   
      1610   304.14705     -211082.37      17.652027     -211064.72      5828.7883      4848.2615      0.78893608   
      1620   285.81793     -211081.46      16.588245     -211064.87      5486.4139      4848.2615      0.78893608   
      1630   291.05246     -211081.92      16.892046     -211065.03      5949.8623      4848.2615      0.78893608   
      1640   279.426       -211081.39      16.217272     -211065.17     -624.45697      4848.2615      0.78893608   
      1650   297.11813     -211082.55      17.244084     -211065.31     -1120.794       4848.2615      0.78893608   
      1660   279.86891     -211081.66      16.242977     -211065.42     -466.14638      4848.2615      0.78893608   
      1670   294.10743     -211082.59      17.06935      -211065.52      3161.8347      4848.2615      0.78893608   
      1680   288.62979     -211082.35      16.751439     -211065.6       5095.9844      4848.2615      0.78893608   
      1690   263.11744     -211080.92      15.270759     -211065.65      3497.8574      4848.2615      0.78893608   
      1700   286.65256     -211082.33      16.636685     -211065.69      2401.7896      4848.2615      0.78893608   
      1710   264.21778     -211081.02      15.33462      -211065.69     -864.90942      4848.2615      0.78893608   
      1720   268.45836     -211081.23      15.580734     -211065.65      135.42896      4848.2615      0.78893608   
      1730   265.34212     -211080.99      15.399874     -211065.59      2334.9572      4848.2615      0.78893608   
      1740   274.24011     -211081.42      15.916294     -211065.5       4582.941       4848.2615      0.78893608   
      1750   280.65226     -211081.65      16.288441     -211065.37      4950.8491      4848.2615      0.78893608   
      1760   275.4599      -211081.21      15.987088     -211065.22      3661.8319      4848.2615      0.78893608   
      1770   285.52852     -211081.63      16.571449     -211065.05      2647.4743      4848.2615      0.78893608   
      1780   284.39748     -211081.35      16.505805     -211064.84      2458.5137      4848.2615      0.78893608   
      1790   289.68197     -211081.45      16.812506     -211064.63      1153.2175      4848.2615      0.78893608   
      1800   287.91691     -211081.11      16.710066     -211064.4       3532.8438      4848.2615      0.78893608   
      1810   284.48655     -211080.67      16.510975     -211064.16      1775.1229      4848.2615      0.78893608   
      1820   295.15124     -211081.06      17.12993      -211063.93      3655.092       4848.2615      0.78893608   
      1830   295.90098     -211080.88      17.173444     -211063.7       850.58889      4848.2615      0.78893608   
      1840   299.81962     -211080.87      17.400873     -211063.47      3686.4626      4848.2615      0.78893608   
      1850   307.74398     -211081.09      17.860785     -211063.23      2182.8571      4848.2615      0.78893608   
      1860   304.3874      -211080.67      17.665977     -211063         1304.0945      4848.2615      0.78893608   
      1870   303.92751     -211080.39      17.639285     -211062.75      1379.3132      4848.2615      0.78893608   
      1880   297.94611     -211079.81      17.292138     -211062.52      761.05547      4848.2615      0.78893608   
      1890   314.13924     -211080.55      18.231952     -211062.31      3635.7205      4848.2615      0.78893608   
      1900   315.85527     -211080.47      18.331546     -211062.14      2892.5623      4848.2615      0.78893608   
      1910   311.88911     -211080.08      18.101359     -211061.98      6938.0571      4848.2615      0.78893608   
      1920   325.86057     -211080.76      18.912232     -211061.85      3018.6903      4848.2615      0.78893608   
      1930   318.33972     -211080.2       18.475739     -211061.73      2326.5596      4848.2615      0.78893608   
      1940   318.86246     -211080.13      18.506077     -211061.62     -1429.0143      4848.2615      0.78893608   
      1950   318.57317     -211080.03      18.489288     -211061.54      565.78084      4848.2615      0.78893608   
      1960   304.99688     -211079.17      17.701349     -211061.47      2955.3883      4848.2615      0.78893608   
      1970   321.84468     -211080.1       18.679159     -211061.42      6284.0355      4848.2615      0.78893608   
      1980   322.19942     -211080.11      18.699747     -211061.41      5382.5648      4848.2615      0.78893608   
      1990   319.85684     -211079.98      18.563789     -211061.41      3421.472       4848.2615      0.78893608   
      2000   313.01332     -211079.6       18.166606     -211061.43     -908.9382       4848.2615      0.78893608   
Loop time of 1589.02 on 6 procs for 2000 steps with 450 atoms

Performance: 0.054 ns/day, 441.396 hours/ns, 1.259 timesteps/s, 566.385 atom-step/s
170.3% CPU use with 1 MPI tasks x 6 OpenMP threads

MPI task timing breakdown:
Section |  min time  |  avg time  |  max time  |%varavg| %total
---------------------------------------------------------------
Pair    | 1588.3     | 1588.3     | 1588.3     |   0.0 | 99.95
Neigh   | 0.61465    | 0.61465    | 0.61465    |   0.0 |  0.04
Comm    | 0.068234   | 0.068234   | 0.068234   |   0.0 |  0.00
Output  | 0.0047002  | 0.0047002  | 0.0047002  |   0.0 |  0.00
Modify  | 0.021784   | 0.021784   | 0.021784   |   0.0 |  0.00
Other   |            | 0.01654    |            |       |  0.00

Nlocal:            450 ave         450 max         450 min
Histogram: 1 0 0 0 0 0 0 0 0 0
Nghost:           5915 ave        5915 max        5915 min
Histogram: 1 0 0 0 0 0 0 0 0 0
Neighs:              0 ave           0 max           0 min
Histogram: 1 0 0 0 0 0 0 0 0 0
FullNghs:       301388 ave      301388 max      301388 min
Histogram: 1 0 0 0 0 0 0 0 0 0

Total # of neighbors = 301388
Ave neighs/atom = 669.75111
Neighbor list builds = 58
Dangerous builds = 0
unfix           1

# ------------------------------------------------------------------
# Stage 2: NPT equilibration
# Lets the box find its equilibrium volume/density under MACE-OFF23
# at 1 atm, 300 K. Isotropic coupling assumes a homogeneous liquid;
# switch to "aniso" if your system is anisotropic (e.g. a crystal).
# ------------------------------------------------------------------
fix             2 all npt temp ${Tinit} ${Trun} $(100.0*dt)                         iso ${Patm} ${Patm} $(1000.0*dt)
fix             2 all npt temp 300 ${Trun} $(100.0*dt)                         iso ${Patm} ${Patm} $(1000.0*dt)
fix             2 all npt temp 300 300 $(100.0*dt)                         iso ${Patm} ${Patm} $(1000.0*dt)
fix             2 all npt temp 300 300 0.050000000000000002776                         iso ${Patm} ${Patm} $(1000.0*dt)
fix             2 all npt temp 300 300 0.050000000000000002776                         iso 1.01325 ${Patm} $(1000.0*dt)
fix             2 all npt temp 300 300 0.050000000000000002776                         iso 1.01325 1.01325 $(1000.0*dt)
fix             2 all npt temp 300 300 0.050000000000000002776                         iso 1.01325 1.01325 0.5
run             4000                     # 2 ps
Generated 0 of 6 mixed pair_coeff terms from geometric mixing rule
Per MPI rank memory allocation (min/avg/max) = 8.964 | 8.964 | 8.964 Mbytes
   Step          Temp          PotEng         KinEng         TotEng         Press          Volume        Density    
      2000   313.01332     -211079.6       18.166606     -211061.43     -908.9382       4848.2615      0.78893608   
      2010   306.31433     -211079.21      17.777811     -211061.43     -1286.4946      4847.7517      0.78901903   
      2020   322.91768     -211080.19      18.741434     -211061.45      732.92525      4846.8186      0.78917093   
      2030   300.92601     -211078.91      17.465085     -211061.45      3536.737       4846.2959      0.78925606   
      2040   319.75601     -211080.04      18.557937     -211061.49      6290.2516      4847.0637      0.78913103   
      2050   306.92375     -211079.36      17.813181     -211061.55      3048.7981      4849.9471      0.78866187   
      2060   308.71924     -211079.55      17.917387     -211061.63      5669.9812      4854.2501      0.78796278   
      2070   300.48714     -211079.16      17.439614     -211061.72      881.43947      4860.3166      0.78697926   
      2080   303.59353     -211079.44      17.619902     -211061.82      3558.065       4867.1525      0.78587396   
      2090   312.99336     -211080.09      18.165448     -211061.92      465.37285      4875.0318      0.78460378   
      2100   318.03289     -211080.5       18.457931     -211062.04      3416.4313      4883.4574      0.78325007   
      2110   308.12457     -211080.11      17.882874     -211062.23      3995.3676      4893.0022      0.78172219   
      2120   304.94423     -211080.12      17.698294     -211062.42      4129.0192      4904.1142      0.77995091   
      2130   302.03111     -211080.17      17.529223     -211062.65      3367.2752      4916.7544      0.77794579   
      2140   294.95054     -211079.99      17.118282     -211062.87      288.22761      4930.5475      0.7757695    
      2150   298.3503      -211080.4       17.315597     -211063.08      482.5562       4944.5872      0.77356678   
      2160   289.23656     -211080.03      16.786655     -211063.25     -492.03209      4958.7394      0.77135902   
      2170   300.70066     -211080.84      17.452006     -211063.39     -869.5182       4972.7683      0.76918291   
      2180   291.57027     -211080.44      16.922098     -211063.52      563.07813      4986.5053      0.76706393   
      2190   287.99918     -211080.34      16.714841     -211063.62      2084.4497      5000.462       0.764923     
      2200   285.81296     -211080.3       16.587957     -211063.72      4241.9735      5015.2013      0.76267495   
      2210   275.45092     -211079.79      15.986567     -211063.8       4010.33        5031.4501      0.76021193   
      2220   294.27894     -211080.92      17.079304     -211063.84      113.29529      5048.9548      0.75757628   
      2230   279.71567     -211080.09      16.234083     -211063.86     -677.2908       5066.4368      0.75496222   
      2240   304.12682     -211081.49      17.650853     -211063.84     -2587.0641      5083.2634      0.75246315   
      2250   292.11628     -211080.79      16.953788     -211063.83      1204.3934      5099.0821      0.75012882   
      2260   314.21591     -211082.08      18.236402     -211063.85      1554.0977      5114.9854      0.74779653   
      2270   305.57617     -211081.61      17.73497      -211063.87      3110.6671      5131.4381      0.74539892   
      2280   291.98774     -211080.84      16.946327     -211063.89      874.30447      5148.7927      0.74288646   
      2290   294.80507     -211081         17.109839     -211063.89     -986.95471      5166.2255      0.74037967   
      2300   270.80056     -211079.56      15.71667      -211063.85     -1873.3612      5182.929       0.73799359   
      2310   302.59815     -211081.36      17.562132     -211063.8      -1328.5006      5198.4222      0.7357941    
      2320   285.79913     -211080.34      16.587154     -211063.76     -1249.4076      5212.9105      0.73374909   
      2330   298.35096     -211081.04      17.315635     -211063.73      534.28533      5226.5359      0.73183624   
      2340   302.67785     -211081.26      17.566758     -211063.69      294.58945      5239.9403      0.72996411   
      2350   306.35702     -211081.44      17.780289     -211063.66      1484.9829      5253.2524      0.72811433   
      2360   297.57426     -211080.92      17.270557     -211063.64     -345.54074      5266.7416      0.72624948   
      2370   295.54741     -211080.74      17.152923     -211063.58     -2368.6814      5279.7156      0.72446485   
      2380   305.51717     -211081.28      17.731546     -211063.55     -1094.6851      5291.4135      0.72286326   
      2390   304.89772     -211081.2       17.695594     -211063.5      -2551.2812      5302.0656      0.72141098   
      2400   302.80518     -211081.06      17.574148     -211063.48      1428.9261      5311.5746      0.72011949   
      2410   298.03448     -211080.77      17.297267     -211063.47     -1161.4226      5321.0485      0.71883734   
      2420   309.83793     -211081.44      17.982313     -211063.46      1993.5708      5330.1391      0.71761136   
      2430   291.57489     -211080.36      16.922367     -211063.43     -1737.2721      5339.5045      0.71635268   
      2440   291.75861     -211080.33      16.933029     -211063.39     -593.42339      5348.1413      0.71519584   
      2450   282.68852     -211079.75      16.406621     -211063.34     -2057.2814      5356.0889      0.71413459   
      2460   295.00531     -211080.4       17.12146      -211063.28     -1063.9524      5362.9286      0.71322381   
      2470   309.19701     -211081.17      17.945116     -211063.22      32.350318      5369.0688      0.71240815   
      2480   293.35065     -211080.19      17.025428     -211063.16      1268.9247      5374.9398      0.71162999   
      2490   315.68168     -211081.45      18.321472     -211063.13      3467.5148      5381.2909      0.71079011   
      2500   311.6124      -211081.17      18.0853       -211063.08      1901.036       5388.8377      0.70979469   
      2510   301.76882     -211080.57      17.514        -211063.05      2278.8753      5397.2482      0.70868861   
      2520   295.99565     -211080.18      17.178938     -211063        -654.81243      5406.3595      0.70749427   
      2530   298.76013     -211080.26      17.339382     -211062.92      467.29663      5415.1491      0.7063459    
      2540   312.4859      -211080.96      18.135996     -211062.82     -1036.8313      5423.8198      0.70521671   
      2550   299.67302     -211080.11      17.392364     -211062.72      2095.3035      5431.9512      0.70416104   
      2560   302.3436      -211080.17      17.547359     -211062.62      1732.2902      5440.6653      0.70303321   
      2570   304.69989     -211080.18      17.684113     -211062.49      3682.001       5450.1075      0.70181521   
      2580   296.27538     -211079.54      17.195173     -211062.35     -1207.8896      5460.6423      0.70046126   
      2590   299.45665     -211079.53      17.379807     -211062.15      522.27843      5470.795       0.69916134   
      2600   301.25774     -211079.4       17.484338     -211061.92     -2164.7         5480.5094      0.69792205   
      2610   308.17302     -211079.58      17.885686     -211061.69      2006.8517      5489.432       0.69678765   
      2620   314.78457     -211079.74      18.269405     -211061.47      533.13324      5498.6099      0.69562462   
      2630   329.61907     -211080.41      19.130367     -211061.28      2890.4506      5508.1076      0.69442513   
      2640   318.73186     -211079.63      18.498497     -211061.13      3392.7108      5518.6556      0.69309786   
      2650   324.78076     -211079.88      18.849562     -211061.03      2163.0506      5530.5758      0.691604     
      2660   325.78517     -211079.84      18.907856     -211060.94      1211.9534      5543.394       0.69000478   
      2670   326.8376      -211079.83      18.968937     -211060.86     -892.26709      5556.3988      0.68838982   
      2680   330.66248     -211080.03      19.190925     -211060.83      1435.2785      5568.9734      0.68683545   
      2690   345.11        -211080.89      20.029427     -211060.86      168.8115       5581.7143      0.68526767   
      2700   323.88474     -211079.71      18.79756      -211060.91      1677.4599      5594.4634      0.68370603   
      2710   338.65767     -211080.68      19.654948     -211061.03      1844.6919      5607.699       0.68209232   
      2720   326.18452     -211080.1       18.931034     -211061.17      1857.3762      5621.4972      0.68041809   
      2730   310.73238     -211079.37      18.034225     -211061.34      1651.6597      5635.986       0.6786689    
      2740   320.61968     -211080.12      18.608062     -211061.51     -2163.2068      5650.6313      0.67690992   
      2750   309.84346     -211079.66      17.982634     -211061.68     -332.90506      5664.1874      0.67528987   
      2760   325.76361     -211080.76      18.906605     -211061.86     -1375.4736      5676.9869      0.67376734   
      2770   305.63079     -211079.78      17.73814      -211062.04      1746.1684      5689.0048      0.67234403   
      2780   316.26908     -211080.58      18.355563     -211062.22      2421.3469      5701.515       0.67086878   
      2790   319.50129     -211080.95      18.543154     -211062.41      3261.3625      5714.9628      0.66929016   
      2800   302.37119     -211080.13      17.54896      -211062.58      1692.8826      5729.7274      0.6675655    
      2810   300.3379      -211080.14      17.430952     -211062.71     -821.48952      5744.951       0.66579652   
      2820   292.77816     -211079.79      16.992202     -211062.79     -1755.5308      5759.4773      0.66411728   
      2830   311.67587     -211080.95      18.088983     -211062.87      1051.2394      5773.0405      0.662557     
      2840   294.31382     -211080.03      17.081328     -211062.95      1898.6124      5786.7064      0.6609923    
      2850   293.73433     -211080.07      17.047696     -211063.02      4279.0112      5801.3844      0.65931993   
      2860   297.41359     -211080.34      17.261232     -211063.08      1576.8173      5817.6609      0.65747531   
      2870   282.41614     -211079.52      16.390813     -211063.13      2065.2009      5834.7547      0.65554913   
      2880   286.76643     -211079.77      16.643294     -211063.13     -2301.4417      5852.1539      0.65360011   
      2890   275.15061     -211079.07      15.969138     -211063.1      -2287.0619      5868.124       0.65182133   
      2900   274.05091     -211078.97      15.905313     -211063.06     -1262.6706      5882.4404      0.65023496   
      2910   296.72574     -211080.24      17.221311     -211063.02      312.00404      5895.6142      0.648782     
      2920   294.31086     -211080.06      17.081157     -211062.98      2441.867       5908.7642      0.64733813   
      2930   292.55444     -211079.92      16.979217     -211062.94     -576.74441      5922.5394      0.64583249   
      2940   305.02111     -211080.59      17.702756     -211062.89      451.61691      5936.0511      0.64436244   
      2950   299.13977     -211080.17      17.361415     -211062.81     -2767.4272      5949.1462      0.64294409   
      2960   298.43575     -211080.06      17.320556     -211062.74      300.38201      5960.862       0.64168041   
      2970   301.00081     -211080.14      17.469427     -211062.67     -1638.4722      5972.122       0.64047057   
      2980   300.57339     -211080.04      17.44462      -211062.6       1376.7831      5982.6049      0.63934832   
      2990   305.82066     -211080.27      17.74916      -211062.52     -646.77059      5993.3461      0.63820249   
      3000   299.11314     -211079.8       17.35987      -211062.44      815.88833      6003.7517      0.63709637   
      3010   303.61141     -211079.98      17.62094      -211062.36      117.83038      6014.3006      0.63597891   
      3020   304.07334     -211079.91      17.647749     -211062.27     -872.27957      6024.6992      0.63488122   
      3030   295.77371     -211079.35      17.166057     -211062.18     -589.17727      6034.4451      0.63385586   
      3040   296.91286     -211079.31      17.232171     -211062.08     -3293.2064      6043.4169      0.63291486   
      3050   305.99144     -211079.73      17.759071     -211061.97     -1189.0909      6050.5316      0.63217063   
      3060   303.93705     -211079.52      17.639839     -211061.88     -2379.8641      6056.4912      0.63154857   
      3070   311.33868     -211079.88      18.069414     -211061.81      488.60177      6061.2097      0.63105693   
      3080   317.56735     -211080.17      18.430912     -211061.74     -791.01457      6065.8173      0.63057758   
      3090   307.87471     -211079.54      17.868373     -211061.68      951.66141      6070.1852      0.63012384   
      3100   303.22033     -211079.23      17.598242     -211061.63     -199.56744      6074.8432      0.62964068   
      3110   306.25255     -211079.33      17.774226     -211061.56     -2705.7284      6079.2699      0.6291822    
      3120   297.63555     -211078.76      17.274114     -211061.49     -2233.2686      6082.1648      0.62888272   
      3130   307.5449      -211079.29      17.849231     -211061.44     -2547.3206      6083.5641      0.62873807   
      3140   306.23999     -211079.16      17.773497     -211061.39      1992.3268      6083.7236      0.62872159   
      3150   298.62214     -211078.66      17.331374     -211061.33      1953.3268      6084.7125      0.62861941   
      3160   309.05923     -211079.22      17.93712      -211061.28      2293.8487      6087.0023      0.62838293   
      3170   290.17387     -211078.06      16.841055     -211061.22     -1773.7911      6090.2785      0.62804491   
      3180   304.40908     -211078.79      17.667235     -211061.12     -3263.8248      6092.7242      0.62779279   
      3190   297.02282     -211078.26      17.238552     -211061.02     -3852.364       6093.163       0.62774758   
      3200   306.09609     -211078.67      17.765145     -211060.9      -261.45016      6091.588       0.62790989   
      3210   322.50119     -211079.48      18.717261     -211060.76      2315.3117      6089.8472      0.62808939   
      3220   297.21415     -211077.87      17.249657     -211060.62      3257.2157      6089.3602      0.62813961   
      3230   325.21189     -211079.37      18.874584     -211060.49      875.91142      6090.6689      0.62800465   
      3240   303.14315     -211077.94      17.593763     -211060.35     -1317.6604      6092.4204      0.6278241    
      3250   314.54585     -211078.47      18.255551     -211060.21     -427.35156      6093.6363      0.62769883   
      3260   319.38064     -211078.61      18.536151     -211060.07     -805.88536      6094.4498      0.62761505   
      3270   317.54193     -211078.37      18.429436     -211059.94      1954.2211      6095.0199      0.62755634   
      3280   338.02435     -211079.45      19.618192     -211059.83      1922.903       6096.6555      0.62738798   
      3290   323.96324     -211078.54      18.802116     -211059.74      2205.9102      6099.4854      0.6270969    
      3300   328.39894     -211078.75      19.059554     -211059.69     -285.38863      6103.5033      0.62668409   
      3310   307.48059     -211077.49      17.845498     -211059.64      209.79486      6107.5223      0.62627171   
      3320   322.65475     -211078.35      18.726173     -211059.62     -903.41799      6111.5281      0.62586122   
      3330   315.14576     -211077.9       18.290368     -211059.61      1026.7326      6115.2148      0.6254839    
      3340   304.08524     -211077.28      17.64844      -211059.63     -799.49289      6119.1322      0.62508347   
      3350   324.09367     -211078.46      18.809685     -211059.65      1407.372       6122.9067      0.62469813   
      3360   311.71786     -211077.8       18.09142      -211059.71     -1002.9691      6127.0246      0.62427828   
      3370   307.10957     -211077.62      17.823966     -211059.8       1152.7319      6130.8656      0.62388716   
      3380   303.99955     -211077.56      17.643466     -211059.91     -48.23144       6134.9223      0.62347462   
      3390   317.17991     -211078.48      18.408426     -211060.07      1931.3725      6139.0819      0.62305218   
      3400   311.77094     -211078.35      18.094501     -211060.25      2518.3782      6144.2744      0.62252565   
      3410   304.42201     -211078.12      17.667985     -211060.45     -1627.3754      6150.5693      0.62188851   
      3420   319.38263     -211079.2       18.536267     -211060.66      1144.1633      6156.5125      0.62128816   
      3430   301.6685      -211078.38      17.508177     -211060.87     -2791.0266      6162.4329      0.62069128   
      3440   302.40356     -211078.65      17.550839     -211061.1       4078.1796      6167.5876      0.62017253   
      3450   303.91655     -211078.94      17.638649     -211061.3      -1381.8272      6174.1129      0.61951707   
      3460   296.65622     -211078.71      17.217276     -211061.5       2019.0976      6180.4705      0.6188798    
      3470   294.75644     -211078.76      17.107017     -211061.65     -1912.5102      6187.3686      0.61818984   
      3480   298.07694     -211079.07      17.299731     -211061.77     -1412.4766      6193.3556      0.61759225   
      3490   282.92303     -211078.28      16.420232     -211061.86     -316.56175      6198.5088      0.6170788    
      3500   306.0291      -211079.69      17.761257     -211061.93     -1779.2998      6203.1496      0.61661714   
      3510   302.45017     -211079.55      17.553544     -211062         2520.2379      6207.2538      0.61620944   
      3520   291.3841      -211078.95      16.911294     -211062.04     -2244.2364      6212.1162      0.61572711   
      3530   292.80014     -211079.08      16.993478     -211062.08      2055.9218      6216.3868      0.61530412   
      3540   296.77737     -211079.32      17.224307     -211062.1      -1532.0457      6221.235       0.61482461   
      3550   297.00644     -211079.35      17.237602     -211062.12      2053.6862      6225.7093      0.61438275   
      3560   281.2875      -211078.44      16.325309     -211062.12     -285.72258      6230.9826      0.6138628    
      3570   301.59232     -211079.61      17.503756     -211062.11      737.04496      6236.2726      0.61334207   
      3580   288.46431     -211078.83      16.741836     -211062.09      1044.2416      6241.9394      0.61278525   
      3590   294.21168     -211079.15      17.0754       -211062.08      288.26338      6248.0583      0.61218513   
      3600   291.80909     -211078.99      16.935959     -211062.06     -98.996334      6254.3843      0.61156593   
      3610   295.58356     -211079.17      17.155021     -211062.01     -168.25072      6260.6087      0.61095791   
      3620   293.88643     -211079.03      17.056523     -211061.97      834.89333      6266.748       0.61035937   
      3630   291.24304     -211078.81      16.903107     -211061.91     -540.70867      6273.22        0.60972967   
      3640   299.86603     -211079.25      17.403566     -211061.85     -1105.7514      6279.2256      0.60914651   
      3650   297.53008     -211079.06      17.267993     -211061.79     -1339.6191      6284.4728      0.60863791   
      3660   319.78186     -211080.3       18.559437     -211061.74      501.6077       6288.8561      0.60821369   
      3670   310.34182     -211079.72      18.011558     -211061.71      147.11624      6293.3488      0.60777949   
      3680   314.60429     -211079.96      18.258943     -211061.7       1698.2085      6298.0725      0.60732365   
      3690   310.24735     -211079.7       18.006075     -211061.69     -285.7584       6303.6051      0.60679061   
      3700   306.90718     -211079.51      17.812219     -211061.7      -262.88906      6309.1735      0.60625506   
      3710   302.17751     -211079.23      17.537719     -211061.7      -1743.0582      6314.3493      0.60575813   
      3720   300.14501     -211079.12      17.419757     -211061.7       742.33715      6318.7358      0.6053376    
      3730   301.97301     -211079.24      17.525851     -211061.72      2007.4383      6323.3488      0.604896     
      3740   294.86925     -211078.86      17.113564     -211061.75      2255.1492      6329.1837      0.60433834   
      3750   306.0966      -211079.54      17.765175     -211061.77      1446.5508      6336.3487      0.60365497   
      3760   307.69806     -211079.65      17.85812      -211061.79     -1087.5634      6344.2896      0.6028994    
      3770   302.45437     -211079.36      17.553788     -211061.81     -1174.2941      6351.743       0.60219193   
      3780   295.9683      -211079.01      17.17735      -211061.84     -1849.358       6358.2824      0.60157258   
      3790   302.07835     -211079.39      17.531964     -211061.86     -296.42089      6363.7386      0.60105681   
      3800   302.33372     -211079.46      17.546786     -211061.91      1227.6939      6368.8799      0.6005716    
      3810   304.20299     -211079.64      17.655274     -211061.98      1123.7001      6374.6265      0.60003019   
      3820   306.07016     -211079.84      17.76364      -211062.07     -32.174174      6381.0435      0.59942679   
      3830   301.13749     -211079.65      17.477359     -211062.17     -702.8868       6387.3628      0.59883375   
      3840   289.30798     -211079.07      16.7908       -211062.28      280.43459      6393.369       0.59827117   
      3850   288.8477      -211079.16      16.764086     -211062.4       473.95374      6399.4144      0.597706     
      3860   282.20453     -211078.89      16.378532     -211062.51      346.14815      6405.7014      0.59711937   
      3870   276.63231     -211078.67      16.055132     -211062.62      2192.7717      6412.3431      0.59650089   
      3880   279.20739     -211078.91      16.204584     -211062.7       503.29728      6420.0545      0.59578441   
      3890   290.24507     -211079.62      16.845187     -211062.77      432.98923      6428.2816      0.5950219    
      3900   282.8746      -211079.24      16.417421     -211062.82     -1409.1525      6436.4389      0.5942678    
      3910   293.36129     -211079.89      17.026045     -211062.87     -50.818638      6443.9287      0.59357708   
      3920   289.05001     -211079.67      16.775828     -211062.89     -1863.6642      6451.0361      0.59292311   
      3930   289.08294     -211079.69      16.77774      -211062.91     -2263.9865      6457.0068      0.59237484   
      3940   286.27368     -211079.52      16.614696     -211062.91     -667.38699      6461.5916      0.59195452   
      3950   273.91884     -211078.78      15.897648     -211062.89      219.01268      6465.5502      0.5915921    
      3960   283.52456     -211079.32      16.455143     -211062.86      2150.5506      6469.795       0.59120395   
      3970   293.75693     -211079.87      17.049007     -211062.82     -1231.1666      6474.8274      0.59074445   
      3980   284.97901     -211079.29      16.539556     -211062.75      325.87649      6479.4544      0.5903226    
      3990   299.81364     -211080.08      17.400526     -211062.68     -1198.2984      6483.8591      0.58992158   
      4000   303.98273     -211080.23      17.642491     -211062.59      1585.4773      6487.8856      0.58955546   
      4010   288.35324     -211079.21      16.735389     -211062.48      1795.6661      6492.7804      0.589111     
      4020   290.99513     -211079.26      16.888718     -211062.37      2480.2011      6498.9424      0.58855244   
      4030   278.59535     -211078.39      16.169063     -211062.22      1276.7421      6506.6847      0.58785212   
      4040   290.08547     -211078.89      16.835924     -211062.05     -133.00254      6515.1317      0.58708996   
      4050   296.1869      -211079.06      17.190038     -211061.87      166.53731      6523.5543      0.58633196   
      4060   294.14149     -211078.75      17.071326     -211061.68      430.86651      6531.9026      0.58558258   
      4070   298.10099     -211078.81      17.301127     -211061.51      747.69375      6540.5623      0.58480727   
      4080   297.67279     -211078.61      17.276275     -211061.33     -182.61739      6549.5447      0.58400523   
      4090   298.50227     -211078.49      17.324417     -211061.17     -57.022187      6558.4269      0.5832143    
      4100   292.12457     -211077.96      16.954269     -211061.01      265.68892      6567.2298      0.58243255   
      4110   291.78177     -211077.81      16.934373     -211060.88     -122.08508      6576.0404      0.5816522    
      4120   298.49936     -211078.07      17.324248     -211060.75     -637.68527      6584.6679      0.5808901    
      4130   305.68321     -211078.38      17.741183     -211060.64      1160.6369      6592.9147      0.58016348   
      4140   302.59835     -211078.11      17.562144     -211060.55      467.42983      6601.6187      0.57939856   
      4150   293.4432      -211077.51      17.030799     -211060.48      1457.9781      6610.7272      0.57860024   
      4160   295.32475     -211077.56      17.14         -211060.42     -1924.7584      6620.2325      0.57776949   
      4170   310.19499     -211078.36      18.003037     -211060.36      750.66591      6628.8164      0.57702132   
      4180   298.45648     -211077.64      17.321759     -211060.31     -822.89787      6637.3667      0.57627799   
      4190   313.02775     -211078.45      18.167444     -211060.28      1589.9852      6645.704       0.57555503   
      4200   296.182       -211077.44      17.189753     -211060.25     -394.69077      6654.6642      0.57478007   
      4210   298.12199     -211077.52      17.302346     -211060.22     -59.427481      6663.5385      0.5740146    
      4220   302.56033     -211077.73      17.559937     -211060.17     -2229.6932      6672.0427      0.57328296   
      4230   290.67294     -211077         16.87002      -211060.13     -1849.8729      6678.996       0.57268613   
      4240   289.92025     -211076.92      16.826335     -211060.09      455.8041       6684.6392      0.57220267   
      4250   290.25521     -211076.9       16.845776     -211060.06      496.33439      6690.244       0.5717233    
      4260   298.81583     -211077.36      17.342615     -211060.02     -283.73689      6696.0597      0.57122674   
      4270   305.49538     -211077.7       17.730281     -211059.97     -2231.8946      6701.4607      0.57076637   
      4280   307.56228     -211077.78      17.85024      -211059.93     -1150.1909      6705.4382      0.5704278    
      4290   310.91527     -211077.94      18.04484      -211059.89     -707.25902      6708.5558      0.57016272   
      4300   301.23252     -211077.34      17.482874     -211059.86      58.59813       6711.1877      0.56993911   
      4310   319.65859     -211078.38      18.552283     -211059.83      1370.537       6713.951       0.56970454   
      4320   299.78353     -211077.21      17.398778     -211059.81      430.59482      6717.4998      0.56940357   
      4330   298.31442     -211077.11      17.313514     -211059.8       167.16544      6721.3878      0.5690742    
      4340   314.62587     -211078.05      18.260195     -211059.79     -1812.0183      6725.1024      0.56875987   
      4350   316.52        -211078.17      18.370126     -211059.8       688.57101      6727.7535      0.56853575   
      4360   317.41847     -211078.27      18.422271     -211059.85      215.27133      6730.5527      0.5682993    
      4370   302.7213      -211077.48      17.56928      -211059.91      1455.4228      6733.6392      0.56803881   
      4380   322.03137     -211078.69      18.689994     -211060        -1117.2865      6737.4096      0.56772092   
      4390   316.71083     -211078.5       18.381202     -211060.12     -1028.1479      6740.6335      0.56744939   
      4400   312.83491     -211078.43      18.156252     -211060.28     -1709.222       6742.9789      0.56725201   
      4410   310.94027     -211078.5       18.046291     -211060.46     -842.2728       6744.3393      0.56713759   
      4420   314.59313     -211078.93      18.258295     -211060.67      434.88405      6745.0661      0.56707649   
      4430   314.9803      -211079.2       18.280765     -211060.92      237.59891      6746.0534      0.56699349   
      4440   301.47819     -211078.69      17.497133     -211061.19      746.55565      6747.2242      0.56689511   
      4450   289.34113     -211078.24      16.792724     -211061.45     -2297.2159      6748.5042      0.56678758   
      4460   309.63866     -211079.66      17.970748     -211061.69     -624.30472      6748.4686      0.56679058   
      4470   303.01077     -211079.48      17.58608      -211061.89     -1917.7388      6747.5362      0.5668689    
      4480   298.94528     -211079.42      17.350128     -211062.07      2219.9845      6745.7964      0.5670151    
      4490   314.19297     -211080.45      18.23507      -211062.21      90.889226      6745.0507      0.56707778   
      4500   299.064       -211079.68      17.357018     -211062.32      1585.4962      6744.909       0.56708969   
      4510   303.77224     -211080.05      17.630274     -211062.42     -1512.8181      6745.4639      0.56704305   
      4520   285.56773     -211079.06      16.573724     -211062.49     -1733.4889      6745.2804      0.56705847   
      4530   294.94022     -211079.65      17.117683     -211062.53     -172.41164      6743.9463      0.56717064   
      4540   282.89024     -211078.99      16.418329     -211062.57      608.41907      6742.4412      0.56729726   
      4550   285.49616     -211079.15      16.56957      -211062.58      2037.4102      6741.5234      0.56737448   
      4560   274.934       -211078.53      15.956566     -211062.57     -51.638903      6741.7337      0.56735679   
      4570   274.19857     -211078.46      15.913883     -211062.55      885.6678       6742.1436      0.56732229   
      4580   292.36043     -211079.46      16.967958     -211062.5      -679.71255      6742.87        0.56726117   
      4590   286.4461      -211079.07      16.624703     -211062.45      670.59354      6743.2784      0.56722682   
      4600   296.045       -211079.58      17.181802     -211062.4      -414.07049      6743.9157      0.56717322   
      4610   288.19625     -211079.05      16.726278     -211062.32      1215.9113      6744.5611      0.56711894   
      4620   303.15361     -211079.84      17.59437      -211062.25      138.4065       6745.8752      0.56700847   
      4630   296.77644     -211079.38      17.224253     -211062.15      1358.711       6747.6582      0.56685864   
      4640   313.27234     -211080.23      18.181639     -211062.05      482.42109      6750.1792      0.56664694   
      4650   307.59441     -211079.81      17.852104     -211061.96      645.75545      6753.2273      0.56639118   
      4660   289.31976     -211078.67      16.791484     -211061.88      529.64759      6756.5479      0.56611282   
      4670   309.72862     -211079.79      17.97597      -211061.81     -1280.88        6760.0718      0.56581772   
      4680   311.52313     -211079.82      18.080119     -211061.74     -65.184115      6762.8496      0.56558531   
      4690   294.44986     -211078.77      17.089224     -211061.68     -1809.532       6765.2541      0.56538429   
      4700   296.12755     -211078.8       17.186593     -211061.62      601.51209      6766.8203      0.56525343   
      4710   313.89001     -211079.76      18.217487     -211061.54     -1029.9115      6768.3545      0.5651253    
      4720   294.11915     -211078.54      17.07003      -211061.47      2155.0226      6769.7283      0.56501062   
      4730   296.34414     -211078.61      17.199163     -211061.41     -768.98641      6772.0111      0.56482016   
      4740   301.44216     -211078.83      17.495041     -211061.33     -1937.7626      6773.9707      0.56465676   
      4750   296.58333     -211078.47      17.213046     -211061.26     -2184.7488      6774.4696      0.56461518   
      4760   287.93917     -211077.89      16.711358     -211061.18     -1304.1145      6773.42        0.56470267   
      4770   287.6361      -211077.78      16.693768     -211061.08      2321.849       6771.7232      0.56484417   
      4780   294.74394     -211078.07      17.106291     -211060.96      619.66279      6771.1952      0.56488822   
      4790   289.72088     -211077.65      16.814764     -211060.84      2802.061       6771.6316      0.56485181   
      4800   313.4752      -211078.89      18.193412     -211060.7      -1830.3608      6773.3802      0.56470599   
      4810   296.10666     -211077.74      17.18538      -211060.56     -489.52156      6774.3842      0.5646223    
      4820   305.86067     -211078.18      17.751482     -211060.43     -1784.2278      6774.6795      0.56459769   
      4830   309.57113     -211078.25      17.966829     -211060.29     -463.59359      6773.8914      0.56466338   
      4840   305.14742     -211077.88      17.710087     -211060.17      515.04029      6772.7459      0.56475888   
      4850   304.0764      -211077.7       17.647927     -211060.06      319.44842      6771.8105      0.56483689   
      4860   318.26074     -211078.43      18.471155     -211059.96      1280.5058      6771.3101      0.56487863   
      4870   321.37591     -211078.53      18.651952     -211059.87     -948.06032      6771.4804      0.56486442   
      4880   302.21963     -211077.34      17.540164     -211059.8      -916.54479      6771.2611      0.56488272   
      4890   309.50218     -211077.71      17.962827     -211059.75     -1557.6143      6770.3595      0.56495794   
      4900   301.33021     -211077.17      17.488544     -211059.68     -60.215225      6768.5383      0.56510996   
      4910   303.20522     -211077.22      17.597365     -211059.62      1487.0198      6766.7639      0.56525814   
      4920   297.42851     -211076.82      17.262098     -211059.56      842.25285      6765.8422      0.56533514   
      4930   306.43295     -211077.3       17.784696     -211059.51      1194.8118      6765.6601      0.56535036   
      4940   306.97706     -211077.28      17.816275     -211059.46     -1155.3039      6766.0075      0.56532133   
      4950   300.73373     -211076.88      17.453925     -211059.43      226.49313      6765.8378      0.56533551   
      4960   321.66057     -211078.07      18.668473     -211059.4      -804.08716      6765.5858      0.56535657   
      4970   325.35065     -211078.27      18.882638     -211059.39     -298.39577      6764.8966      0.56541416   
      4980   307.23799     -211077.23      17.831419     -211059.4      -1252.3051      6763.9059      0.56549698   
      4990   314.79707     -211077.71      18.270131     -211059.44     -2692.8197      6761.9436      0.56566108   
      5000   327.08034     -211078.49      18.983025     -211059.51     -959.35294      6758.3477      0.56596206   
      5010   322.88606     -211078.35      18.739598     -211059.61     -1666.8461      6753.845       0.56633938   
      5020   308.15943     -211077.66      17.884897     -211059.77      1072.8931      6748.5899      0.56678039   
      5030   309.452       -211077.94      17.959915     -211059.98     -1690.1264      6743.6984      0.56719149   
      5040   300.83513     -211077.72      17.45981      -211060.26      108.44201      6738.0259      0.567669     
      5050   302.10072     -211078.12      17.533263     -211060.59     -3061.1066      6731.9503      0.56818132   
      5060   294.63197     -211078.05      17.099793     -211060.95     -998.76765      6724.0658      0.56884755   
      5070   286.39373     -211077.87      16.621663     -211061.25     -1351.9528      6715.2046      0.56959819   
      5080   311.45029     -211079.59      18.075891     -211061.52      587.64463      6705.6965      0.57040583   
      5090   300.16601     -211079.14      17.420976     -211061.72      722.54395      6696.541       0.57118569   
      5100   290.86231     -211078.76      16.88101      -211061.88     -235.19241      6688.0448      0.5719113    
      5110   284.97053     -211078.52      16.539064     -211061.98     -9.9814145      6679.5494      0.57263869   
      5120   290.48758     -211078.92      16.859261     -211062.06     -2671.3427      6670.9155      0.57337983   
      5130   284.61152     -211078.65      16.518228     -211062.14     -36.333554      6660.8667      0.57424485   
      5140   269.94429     -211077.83      15.666974     -211062.16     -1497.2349      6650.482       0.57514153   
      5150   290.00199     -211079.01      16.831079     -211062.18      2345.0728      6639.632       0.57608138   
      5160   297.75624     -211079.44      17.281119     -211062.16     -745.7305       6629.8661      0.57692996   
      5170   299.6303      -211079.54      17.389885     -211062.15      1545.0683      6620.2545      0.57776757   
      5180   295.07331     -211079.27      17.125407     -211062.14     -844.34592      6611.2913      0.57855088   
      5190   295.35366     -211079.29      17.141678     -211062.14     -496.20946      6602.1301      0.57935368   
      5200   292.94695     -211079.13      17.001998     -211062.13     -819.18598      6592.5836      0.58019262   
      5210   294.92839     -211079.24      17.116996     -211062.12     -1483.7199      6582.5332      0.58107848   
      5220   291.74028     -211079.02      16.931965     -211062.09      2765.5702      6571.9929      0.58201042   
      5230   292.84958     -211079.04      16.996347     -211062.04     -83.736952      6562.8514      0.58282112   
      5240   301.3919      -211079.48      17.492124     -211061.99      3769.9547      6554.492       0.58356443   
      5250   304.31724     -211079.59      17.661904     -211061.93     -1844.7397      6547.9506      0.58414741   
      5260   305.77615     -211079.63      17.746577     -211061.89      906.72888      6541.1106      0.58475825   
      5270   294.51372     -211078.93      17.09293      -211061.83     -3369.0345      6534.3035      0.58536742   
      5280   309.15115     -211079.74      17.942454     -211061.79     -236.98719      6525.9728      0.58611467   
      5290   303.48459     -211079.34      17.613579     -211061.73      33.784121      6517.3067      0.58689403   
      5300   300.64796     -211079.12      17.448947     -211061.67      2039.9636      6508.9614      0.5876465    
      5310   296.60061     -211078.82      17.214048     -211061.61      1176.0139      6501.872       0.58828725   
      5320   300.14522     -211078.98      17.41977      -211061.56     -1281.3574      6495.5117      0.58886329   
      5330   309.27778     -211079.45      17.949804     -211061.5      -206.05282      6488.7327      0.58947849   
      5340   316.63894     -211079.82      18.377029     -211061.44     -2123.1353      6481.6083      0.59012643   
      5350   299.44255     -211078.76      17.378989     -211061.38      1857.0381      6473.7149      0.59084598   
      5360   300.59877     -211078.78      17.446093     -211061.33      101.93434      6466.6548      0.59149104   
      5370   312.69068     -211079.42      18.147881     -211061.27      2611.8362      6460.0911      0.59209202   
      5380   299.28532     -211078.6       17.369863     -211061.23      335.41079      6454.8857      0.59256949   
      5390   294.13385     -211078.27      17.070883     -211061.2       2877.9831      6450.3089      0.59298995   
      5400   295.49039     -211078.31      17.149613     -211061.16      564.29198      6447.2859      0.593268     
      5410   312.28628     -211079.25      18.12441      -211061.12      1142.0757      6444.9511      0.59348291   
      5420   304.49028     -211078.75      17.671948     -211061.07     -1332.4212      6443.1561      0.59364825   
      5430   301.64286     -211078.53      17.50669      -211061.03      839.47833      6440.9456      0.593852     
      5440   306.06417     -211078.74      17.763293     -211060.97      513.09021      6439.076       0.59402442   
      5450   302.57691     -211078.48      17.5609       -211060.92      1735.2846      6437.7948      0.59414264   
      5460   309.57029     -211078.83      17.96678      -211060.87      955.15415      6437.4828      0.59417144   
      5470   304.21217     -211078.47      17.655806     -211060.81      60.184695      6437.8679      0.59413589   
      5480   297.02644     -211078         17.238763     -211060.76      405.59983      6438.3442      0.59409193   
      5490   299.73602     -211078.1       17.396021     -211060.7      -1886.441       6438.8528      0.59404501   
      5500   303.59254     -211078.26      17.619845     -211060.64      590.29433      6438.4429      0.59408283   
      5510   303.80588     -211078.22      17.632226     -211060.58     -346.07443      6438.0497      0.59411911   
      5520   315.27111     -211078.82      18.297644     -211060.52      3989.5068      6437.9339      0.5941298    
      5530   323.62417     -211079.24      18.782437     -211060.46      2426.7422      6439.9714      0.59394183   
      5540   328.73391     -211079.51      19.078995     -211060.43      2816.2616      6443.944       0.59357567   
      5550   308.60997     -211078.32      17.911045     -211060.41     -808.84867      6449.4342      0.59307038   
      5560   311.21999     -211078.45      18.062525     -211060.39     -2267.4504      6454.5975      0.59259596   
      5570   314.03996     -211078.61      18.22619      -211060.38     -720.6239       6458.3961      0.59224742   
      5580   318.11371     -211078.86      18.462622     -211060.4       1802.9136      6461.7076      0.5919439    
      5590   307.46828     -211078.3       17.844784     -211060.45      4619.6629      6466.2381      0.59152916   
      5600   318.64822     -211079.03      18.493643     -211060.53      1144.9349      6473.2776      0.59088589   
      5610   312.32371     -211078.77      18.126583     -211060.64     -1103.3946      6481.1525      0.59016794   
      5620   307.7326      -211078.62      17.860125     -211060.76     -4212.1977      6487.9997      0.58954509   
      5630   310.74582     -211078.95      18.035005     -211060.91     -3340.7676      6492.2606      0.58915817   
      5640   305.5241      -211078.81      17.731948     -211061.08     -85.868625      6494.4149      0.58896274   
      5650   316.95357     -211079.65      18.395289     -211061.26      1365.282       6496.4105      0.58878182   
      5660   307.30989     -211079.29      17.835591     -211061.46      3234.8313      6499.5075      0.58850126   
      5670   291.53355     -211078.57      16.919968     -211061.65      1118.5621      6504.4561      0.58805353   
      5680   288.70183     -211078.57      16.755621     -211061.81      551.70699      6510.3339      0.58752261   
      5690   295.52281     -211079.12      17.151495     -211061.97     -1334.5807      6516.2909      0.58698551   
      5700   292.67828     -211079.1       16.986405     -211062.11     -518.15179      6521.4456      0.58652155   
      5710   285.70307     -211078.81      16.581579     -211062.23      667.70752      6526.1425      0.58609943   
      5720   291.33296     -211079.25      16.908326     -211062.34      1285.1674      6531.1453      0.58565048   
      5730   286.73268     -211079.07      16.641335     -211062.43      2515.4703      6537.1005      0.58511696   
      5740   282.2439      -211078.87      16.380816     -211062.49      1003.8372      6544.4681      0.58445825   
      5750   293.27619     -211079.56      17.021107     -211062.53      1423.7901      6552.7568      0.58371896   
      5760   295.29806     -211079.69      17.138451     -211062.55     -511.03999      6561.7505      0.5829189    
      5770   287.51755     -211079.24      16.686887     -211062.56     -532.2124       6570.5292      0.58214008   
      5780   294.25289     -211079.63      17.077792     -211062.55     -1741.4633      6578.7801      0.58140998   
      5790   286.17133     -211079.14      16.608756     -211062.53     -1627.1262      6585.7972      0.58079049   
      5800   290.73631     -211079.38      16.873697     -211062.5       50.694834      6591.7718      0.58026408   
      5810   284.99911     -211079.01      16.540723     -211062.47      1500.1044      6597.6282      0.579749     
      5820   284.92876     -211078.97      16.53664      -211062.43      2552.8928      6604.5279      0.57914335   
      5830   295.54381     -211079.53      17.152714     -211062.37      572.89633      6612.9107      0.5784092    
      5840   284.84496     -211078.82      16.531776     -211062.29     -1880.821       6621.6394      0.57764673   
      5850   297.85805     -211079.47      17.287027     -211062.19     -3303.6851      6629.03        0.57700273   
      5860   312.85312     -211080.23      18.157308     -211062.08     -2112.7024      6634.1957      0.57655344   
      5870   296.89887     -211079.21      17.231359     -211061.97      1195.9934      6638.0317      0.57622026   
      5880   303.7918      -211079.52      17.631409     -211061.89      2508.4653      6642.4575      0.57583634   
      5890   296.21232     -211078.99      17.191513     -211061.8       1468.5624      6648.486       0.5753142    
      5900   297.59933     -211078.99      17.272012     -211061.71      156.71892      6655.4348      0.57471352   
      5910   304.46214     -211079.29      17.670314     -211061.62     -3419.1404      6662.1902      0.57413077   
      5920   303.57139     -211079.14      17.618617     -211061.52     -1576.7394      6666.8502      0.57372946   
      5930   307.99923     -211079.31      17.875599     -211061.43     -2766.6444      6670.0377      0.57345529   
      5940   310.3925      -211079.37      18.014499     -211061.35      2076.6215      6671.7909      0.57330459   
      5950   313.34284     -211079.46      18.185731     -211061.28      350.11756      6674.466       0.57307482   
      5960   299.04596     -211078.57      17.355971     -211061.21      2109.1758      6677.7797      0.57279044   
      5970   298.24935     -211078.46      17.309738     -211061.15     -425.79168      6682.1775      0.57241347   
      5980   309.6991      -211079.04      17.974256     -211061.07     -2061.162       6686.4008      0.57205192   
      5990   295.38024     -211078.14      17.143221     -211060.99     -815.92914      6689.2599      0.57180741   
      6000   302.09012     -211078.44      17.532647     -211060.9      -1102.3004      6691.4076      0.57162388   
Loop time of 2676.26 on 6 procs for 4000 steps with 450 atoms

Performance: 0.065 ns/day, 371.703 hours/ns, 1.495 timesteps/s, 672.580 atom-step/s
167.1% CPU use with 1 MPI tasks x 6 OpenMP threads

MPI task timing breakdown:
Section |  min time  |  avg time  |  max time  |%varavg| %total
---------------------------------------------------------------
Pair    | 2675.5     | 2675.5     | 2675.5     |   0.0 | 99.97
Neigh   | 0.53016    | 0.53016    | 0.53016    |   0.0 |  0.02
Comm    | 0.11267    | 0.11267    | 0.11267    |   0.0 |  0.00
Output  | 0.0091191  | 0.0091191  | 0.0091191  |   0.0 |  0.00
Modify  | 0.087792   | 0.087792   | 0.087792   |   0.0 |  0.00
Other   |            | 0.02954    |            |       |  0.00

Nlocal:            450 ave         450 max         450 min
Histogram: 1 0 0 0 0 0 0 0 0 0
Nghost:           4967 ave        4967 max        4967 min
Histogram: 1 0 0 0 0 0 0 0 0 0
Neighs:              0 ave           0 max           0 min
Histogram: 1 0 0 0 0 0 0 0 0 0
FullNghs:       218756 ave      218756 max      218756 min
Histogram: 1 0 0 0 0 0 0 0 0 0

Total # of neighbors = 218756
Ave neighs/atom = 486.12444
Neighbor list builds = 86
Dangerous builds = 0
unfix           2

write_data      data.system.after_npt_equil nocoeff
System init for write_data ...
Generated 0 of 6 mixed pair_coeff terms from geometric mixing rule

# ------------------------------------------------------------------
# Stage 3: production
# Continues at the NPT-equilibrated volume. Switch to NVT here instead
# if you want fixed-volume production once the density has converged.
# ------------------------------------------------------------------
fix             3 all npt temp ${Tinit} ${Trun} $(100.0*dt)                         iso ${Patm} ${Patm} $(1000.0*dt)
fix             3 all npt temp 300 ${Trun} $(100.0*dt)                         iso ${Patm} ${Patm} $(1000.0*dt)
fix             3 all npt temp 300 300 $(100.0*dt)                         iso ${Patm} ${Patm} $(1000.0*dt)
fix             3 all npt temp 300 300 0.050000000000000002776                         iso ${Patm} ${Patm} $(1000.0*dt)
fix             3 all npt temp 300 300 0.050000000000000002776                         iso 1.01325 ${Patm} $(1000.0*dt)
fix             3 all npt temp 300 300 0.050000000000000002776                         iso 1.01325 1.01325 $(1000.0*dt)
fix             3 all npt temp 300 300 0.050000000000000002776                         iso 1.01325 1.01325 0.5

dump            1 all custom 100 dump.mace_off23.lammpstrj id type element x y z
dump_modify     1 element H C N O sort id

run             2000                     # 1 ps production (still smoke-test scale)
Generated 0 of 6 mixed pair_coeff terms from geometric mixing rule
Per MPI rank memory allocation (min/avg/max) = 8.965 | 8.965 | 8.965 Mbytes
   Step          Temp          PotEng         KinEng         TotEng         Press          Volume        Density    
      6000   302.09012     -211078.44      17.532647     -211060.9      -1102.3004      6691.4076      0.57162388   
      6010   313.71401     -211079.12      18.207273     -211060.91      2157.3326      6691.456       0.57161975   
      6020   310.8586      -211078.97      18.041551     -211060.93     -867.32515      6692.5559      0.5715258    
      6030   294.37148     -211078.04      17.084675     -211060.96      1900.1819      6693.531       0.57144254   
      6040   293.83536     -211078.04      17.053559     -211060.99     -828.37619      6695.3426      0.57128793   
      6050   289.22451     -211077.8       16.785956     -211061.01      2287.8508      6697.0822      0.57113953   
      6060   292.91695     -211078.03      17.000257     -211061.03     -30.92974       6699.9377      0.57089611   
      6070   301.69764     -211078.55      17.509869     -211061.04      577.60501      6703.1074      0.57062616   
      6080   282.3577      -211077.44      16.387421     -211061.05      1144.4695      6706.6135      0.57032784   
      6090   297.31243     -211078.3       17.255361     -211061.05      244.61153      6710.8613      0.56996684   
      6100   295.22656     -211078.17      17.134301     -211061.04      3249.8         6715.571       0.56956711   
      6110   287.02122     -211077.69      16.658082     -211061.03      975.23688      6722.148       0.56900985   
      6120   289.3732      -211077.81      16.794585     -211061.02      3862.0739      6729.988       0.56834698   
      6130   295.16971     -211078.1       17.131002     -211060.97     -2401.0444      6739.7702      0.56752208   
      6140   316.34552     -211079.27      18.36         -211060.91     -272.09474      6748.6708      0.56677359   
      6150   304.64543     -211078.51      17.680952     -211060.83     -3940.0438      6756.7318      0.56609741   
      6160   307.95091     -211078.63      17.872795     -211060.75      610.44246      6762.7433      0.5655942    
      6170   327.15519     -211079.67      18.987369     -211060.68     -570.24882      6768.6763      0.56509843   
      6180   305.95647     -211078.37      17.757042     -211060.61      1548.3171      6774.5793      0.56460603   
      6190   299.66635     -211077.95      17.391977     -211060.56      1226.8319      6781.5528      0.56402545   
      6200   301.33703     -211077.95      17.48894      -211060.46     -2335.8193      6789.1645      0.56339309   
      6210   304.76329     -211078.04      17.687792     -211060.36     -1121.1212      6795.5508      0.56286363   
      6220   319.08386     -211078.76      18.518927     -211060.24     -3603.9603      6800.6312      0.56244314   
      6230   304.56747     -211077.82      17.676427     -211060.14      2305.7685      6803.7404      0.56218611   
      6240   312.24217     -211078.19      18.12185      -211060.07      358.79523      6807.783       0.56185228   
      6250   311.15458     -211078.06      18.058729     -211060         2853.7594      6812.4683      0.56146586   
      6260   307.24218     -211077.78      17.831662     -211059.95     -911.64526      6818.7671      0.56094721   
      6270   306.69087     -211077.69      17.799665     -211059.89     -1094.2306      6824.6673      0.56046225   
      6280   299.11523     -211077.19      17.359991     -211059.83     -2001.3526      6829.7238      0.5600473    
      6290   322.53452     -211078.48      18.719196     -211059.76     -825.76453      6833.4678      0.55974046   
      6300   311.86313     -211077.82      18.099852     -211059.72      1082.5778      6836.6351      0.55948114   
      6310   313.6396      -211077.89      18.202954     -211059.69      618.49813      6840.5043      0.55916467   
      6320   318.36824     -211078.15      18.477394     -211059.68      26.112167      6844.823       0.55881188   
      6330   310.15682     -211077.67      18.000821     -211059.67     -2441.4687      6849.0853      0.55846411   
      6340   299.58477     -211077.07      17.387243     -211059.68     -798.36905      6851.8057      0.55824239   
      6350   296.81865     -211076.92      17.226703     -211059.7      -1694.743       6853.6667      0.55809081   
      6360   296.05422     -211076.9       17.182337     -211059.72      1023.8412      6854.5723      0.55801707   
      6370   303.53673     -211077.35      17.616605     -211059.73     -694.85037      6855.7882      0.55791811   
      6380   326.44041     -211078.71      18.945885     -211059.77      1401.85        6856.9292      0.55782527   
      6390   309.82338     -211077.8       17.981469     -211059.82     -434.32187      6858.6784      0.557683     
      6400   324.35886     -211078.73      18.825077     -211059.9       895.67728      6860.5325      0.55753229   
      6410   302.43616     -211077.55      17.552731     -211060        -163.70584      6862.7677      0.5573507    
      6420   319.32177     -211078.66      18.532735     -211060.12      246.94839      6865.1273      0.55715914   
      6430   311.66394     -211078.36      18.088291     -211060.28      141.74458      6867.6155      0.55695727   
      6440   300.73532     -211077.89      17.454018     -211060.44     -266.48395      6870.1986      0.55674787   
      6450   312.01025     -211078.73      18.10839      -211060.63     -430.89234      6872.608       0.55655268   
      6460   309.01329     -211078.76      17.934453     -211060.83     -1879.2975      6874.4868      0.55640057   
      6470   315.8271      -211079.37      18.329912     -211061.04     -299.14123      6875.22        0.55634123   
      6480   299.32153     -211078.63      17.371965     -211061.26     -1101.2316      6875.3928      0.55632725   
      6490   292.25727     -211078.42      16.96197      -211061.46      960.83203      6875.0207      0.55635736   
      6500   294.29132     -211078.7       17.080022     -211061.62     -1413.7825      6874.917       0.55636575   
      6510   300.16659     -211079.18      17.42101      -211061.76     -1205.3137      6874.025       0.55643795   
      6520   290.24169     -211078.71      16.84499      -211061.87     -1080.767       6872.2023      0.55658554   
      6530   294.41516     -211079.04      17.08721      -211061.95      491.65019      6869.772       0.55678244   
      6540   304.42021     -211079.68      17.667881     -211062.01      977.27077      6867.7073      0.55694982   
      6550   304.29051     -211079.72      17.660353     -211062.06      387.32415      6866.3869      0.55705693   
      6560   273.86056     -211078         15.894266     -211062.1       498.06608      6865.4471      0.55713318   
      6570   280.9733      -211078.43      16.307073     -211062.12     -334.79015      6864.762       0.55718878   
      6580   284.9949      -211078.66      16.540479     -211062.12      67.451156      6863.8561      0.55726232   
      6590   283.04632     -211078.55      16.427387     -211062.12      396.12222      6862.894       0.55734044   
      6600   282.79633     -211078.51      16.412879     -211062.1       233.30573      6862.1096      0.55740415   
      6610   287.25576     -211078.74      16.671694     -211062.07      922.67494      6861.5178      0.55745223   
      6620   290.16056     -211078.86      16.840282     -211062.02     -203.9477       6861.4276      0.55745956   
      6630   288.0897      -211078.68      16.720094     -211061.96      734.83384      6861.4516      0.5574576    
      6640   281.25305     -211078.22      16.32331      -211061.89     -2532.842       6861.6315      0.55744299   
      6650   281.29394     -211078.14      16.325683     -211061.81     -1109.0924      6860.3921      0.55754369   
      6660   304.43352     -211079.37      17.668653     -211061.7      -2464.6711      6858.0277      0.55773592   
      6670   304.23456     -211079.24      17.657106     -211061.58      773.94913      6854.3211      0.55803753   
      6680   296.77057     -211078.68      17.223912     -211061.46      564.85605      6850.9123      0.55831519   
      6690   306.79245     -211079.14      17.80556      -211061.34      896.79866      6848.0853      0.55854567   
      6700   318.77972     -211079.72      18.501275     -211061.21     -467.36373      6845.7846      0.55873338   
      6710   319.82191     -211079.68      18.561761     -211061.12     -1239.0357      6843.1536      0.5589482    
      6720   291.96548     -211078         16.945036     -211061.06      1155.918       6839.8283      0.55921994   
      6730   307.47866     -211078.84      17.845387     -211061        -588.90454      6836.9091      0.55945871   
      6740   313.48329     -211079.14      18.193882     -211060.95      2341.546       6833.947       0.55970121   
      6750   313.61057     -211079.12      18.201269     -211060.92     -337.94486      6832.1131      0.55985145   
      6760   318.48439     -211079.4       18.484135     -211060.91      1917.4816      6830.5285      0.55998132   
      6770   315.39252     -211079.24      18.30469      -211060.93     -1878.8872      6829.7095      0.56004847   
      6780   315.8956      -211079.31      18.333888     -211060.98      354.45815      6828.0986      0.5601806    
      6790   302.74674     -211078.6       17.570756     -211061.03     -1458.9871      6826.295       0.56032861   
      6800   302.45766     -211078.64      17.553979     -211061.09      84.873276      6823.8039      0.56053316   
      6810   303.48038     -211078.75      17.613335     -211061.14      164.43149      6821.2808      0.5607405    
      6820   306.93653     -211079.01      17.813922     -211061.2      -36.179964      6818.912       0.56093529   
      6830   305.72384     -211079.01      17.743541     -211061.26      832.27792      6816.7073      0.56111671   
      6840   292.99451     -211078.33      17.004758     -211061.33     -627.98941      6814.8277      0.56127147   
      6850   301.72101     -211078.92      17.511225     -211061.41      1781.3387      6812.859       0.56143366   
      6860   292.39614     -211078.47      16.97003      -211061.5      -484.88755      6811.6369      0.56153439   
      6870   298.28825     -211078.92      17.311995     -211061.6       2795.319       6810.5632      0.56162292   
      6880   299.86418     -211079.14      17.403459     -211061.73     -448.66331      6810.87        0.56159762   
      6890   292.32716     -211078.85      16.966027     -211061.88      2665.8819      6811.4254      0.56155183   
      6900   297.04775     -211079.28      17.239999     -211062.04      190.01257      6813.5141      0.56137968   
      6910   294.97985     -211079.34      17.119983     -211062.22      1324.0692      6816.1493      0.56116264   
      6920   297.19702     -211079.68      17.248663     -211062.43     -815.6677       6819.5879      0.5608797    
      6930   272.24197     -211078.43      15.800327     -211062.63     -525.70107      6822.696       0.56062418   
      6940   278.22211     -211078.97      16.1474       -211062.82     -308.37239      6825.418       0.5604006    
      6950   278.73252     -211079.18      16.177024     -211063         26.312607      6827.9829      0.5601901    
      6960   269.55365     -211078.82      15.644302     -211063.17      1089.5152      6830.5498      0.55997957   
      6970   280.38709     -211079.59      16.273052     -211063.32     -233.42375      6833.8029      0.55971301   
      6980   274.10532     -211079.34      15.908471     -211063.44      236.49103      6836.9457      0.55945572   
      6990   280.58791     -211079.82      16.284706     -211063.53     -623.91284      6840.2426      0.55918607   
      7000   284.43806     -211080.11      16.508161     -211063.6       305.81414      6843.2016      0.55894428   
      7010   271.08436     -211079.38      15.733141     -211063.65      505.80278      6846.3586      0.55868654   
      7020   272.04816     -211079.46      15.789078     -211063.67      1110.7858      6849.9927      0.55839014   
      7030   279.0635      -211079.86      16.196233     -211063.66      343.66374      6854.3051      0.55803882   
      7040   274.7597      -211079.58      15.94645      -211063.63      1098.5192      6859.1692      0.5576431    
      7050   264.93942     -211078.95      15.376502     -211063.58      287.85414      6864.6493      0.55719793   
      7060   283.57904     -211079.94      16.458305     -211063.48     -851.65342      6870.5437      0.5567199    
      7070   287.38579     -211080.03      16.679241     -211063.35     -1811.75        6875.8004      0.55629427   
      7080   274.25348     -211079.13      15.91707      -211063.21     -1222.9617      6879.9468      0.555959     
      7090   285.42415     -211079.61      16.565391     -211063.05      20.631612      6883.2744      0.55569024   
      7100   284.0981      -211079.36      16.48843      -211062.87     -22.156977      6886.5107      0.55542909   
      7110   290.40404     -211079.56      16.854413     -211062.7       346.08928      6889.8534      0.55515962   
      7120   291.80836     -211079.48      16.935917     -211062.54     -834.63878      6893.2379      0.55488704   
      7130   284.53234     -211078.93      16.513632     -211062.41     -251.26525      6896.2011      0.55464861   
      7140   296.6181      -211079.51      17.215063     -211062.3      -301.70687      6898.8558      0.55443519   
      7150   307.05988     -211080.02      17.821081     -211062.2      -25.948094      6901.4058      0.55423033   
      7160   300.86        -211079.6       17.461254     -211062.14      243.70941      6903.9056      0.55402964   
      7170   287.89027     -211078.8       16.708519     -211062.09     -153.95036      6906.5737      0.55381562   
      7180   311.99544     -211080.16      18.107531     -211062.05      40.86361       6909.2246      0.55360313   
      7190   297.39686     -211079.28      17.260261     -211062.02      310.49059      6911.9172      0.55338747   
      7200   301.84471     -211079.51      17.518404     -211061.99      100.68122      6914.8863      0.55314985   
      7210   302.43005     -211079.53      17.552376     -211061.97     -1088.9533      6917.878       0.55291065   
      7220   297.25919     -211079.21      17.252271     -211061.96     -1091.5266      6920.1904      0.55272589   
      7230   313.98336     -211080.16      18.222905     -211061.94     -433.0752       6921.7659      0.55260008   
      7240   300.27739     -211079.35      17.427441     -211061.93      730.16882      6923.1033      0.55249333   
      7250   301.57153     -211079.42      17.50255      -211061.92      1000.8639      6925.0184      0.55234053   
      7260   287.77962     -211078.6       16.702097     -211061.9       750.29518      6927.7038      0.55212643   
      7270   300.37564     -211079.32      17.433143     -211061.89      2132.5776      6931.1394      0.55185275   
      7280   291.69157     -211078.8       16.929138     -211061.87      1730.0624      6936.0916      0.55145875   
      7290   287.57219     -211078.54      16.690058     -211061.85      2188.7186      6942.5173      0.55094834   
      7300   294.27118     -211078.9       17.078853     -211061.82     -396.32675      6950.417       0.55032214   
      7310   282.40243     -211078.17      16.390017     -211061.78      1182.4098      6958.5146      0.54968174   
      7320   291.83917     -211078.67      16.937705     -211061.73      968.20147      6967.4475      0.54897699   
      7330   296.34813     -211078.86      17.199395     -211061.66      3445.8163      6977.6302      0.54817585   
      7340   291.55512     -211078.51      16.921219     -211061.59      2183.922       6990.3461      0.54717868   
      7350   295.23473     -211078.64      17.134776     -211061.5       1031.1976      7005.0922      0.54602684   
      7360   307.22043     -211079.23      17.8304       -211061.4      -472.43518      7020.8135      0.54480416   
      7370   292.73143     -211078.27      16.989489     -211061.28     -774.88331      7036.466       0.54359225   
      7380   301.0093      -211078.64      17.469919     -211061.17      1078.234       7051.9662      0.54239744   
      7390   311.90062     -211079.15      18.102027     -211061.05     -491.1277       7068.1837      0.54115294   
      7400   309.42195     -211078.91      17.958171     -211060.95      1264.4095      7084.6033      0.53989874   
      7410   317.41383     -211079.29      18.422002     -211060.86     -5.5179456      7101.8918      0.53858443   
      7420   301.15805     -211078.28      17.478552     -211060.8       1288.1321      7119.7005      0.53723726   
      7430   311.80817     -211078.84      18.096662     -211060.74     -464.16377      7138.4723      0.5358245    
      7440   309.10125     -211078.62      17.939558     -211060.68     -1220.9044      7157.1098      0.53442919   
      7450   294.45328     -211077.71      17.089422     -211060.63     -720.00907      7175.0559      0.53309248   
      7460   295.15486     -211077.71      17.13014      -211060.58      1182.4872      7192.6482      0.53178861   
      7470   301.80895     -211078.07      17.516329     -211060.55      2241.1837      7211.3949      0.53040617   
      7480   300.45879     -211077.95      17.437968     -211060.52      2994.578       7232.217       0.5288791    
      7490   292.47088     -211077.46      16.974368     -211060.49      728.78016      7255.4831      0.52718314   
      7500   293.49351     -211077.43      17.033719     -211060.4       285.02831      7279.8155      0.52542106   
      7510   293.85951     -211077.35      17.054961     -211060.29     -2116.1839      7304.1493      0.52367062   
      7520   294.795       -211077.28      17.109255     -211060.17     -418.54403      7327.2434      0.5220201    
      7530   295.81909     -211077.21      17.16869      -211060.04     -179.96173      7349.6388      0.52042944   
      7540   312.72213     -211078.08      18.149706     -211059.93      738.50963      7372.0555      0.51884693   
      7550   318.65361     -211078.31      18.493956     -211059.82      1240.9912      7395.0313      0.51723491   
      7560   319.95973     -211078.28      18.56976      -211059.71     -1529.7282      7418.7319      0.5155825    
      7570   313.24597     -211077.77      18.180109     -211059.59      366.38381      7441.6355      0.51399566   
      7580   304.72036     -211077.16      17.685301     -211059.48     -3219.8413      7463.9999      0.51245558   
      7590   319.25519     -211077.89      18.528871     -211059.37      777.2293       7484.3549      0.51106187   
      7600   312.4422      -211077.42      18.13346      -211059.29     -532.35365      7504.396       0.50969703   
      7610   308.94459     -211077.16      17.930466     -211059.23      2128.0805      7524.3984      0.50834209   
      7620   316.23448     -211077.54      18.353555     -211059.18      630.29166      7545.5623      0.50691628   
      7630   305.63409     -211076.87      17.738332     -211059.13      210.25745      7567.1967      0.50546702   
      7640   318.11579     -211077.56      18.462742     -211059.09      1290.0559      7588.9693      0.50401685   
      7650   307.91786     -211076.92      17.870877     -211059.05     -1217.9057      7611.1011      0.50255125   
      7660   320.12209     -211077.6       18.579183     -211059.02      1109.1128      7632.5296      0.50114033   
      7670   302.97075     -211076.55      17.583757     -211058.96     -3200.7062      7653.6636      0.49975653   
      7680   321.50396     -211077.59      18.659384     -211058.93      301.14121      7672.5105      0.49852892   
      7690   321.44546     -211077.56      18.655989     -211058.9      -2922.1519      7690.321       0.49737435   
      7700   316.31034     -211077.27      18.357958     -211058.91      680.12947      7705.8821      0.49636996   
      7710   328.83498     -211078.04      19.08486      -211058.96     -870.35546      7721.1334      0.4953895    
      7720   315.51207     -211077.35      18.311628     -211059.04     -150.34281      7735.4836      0.49447049   
      7730   327.90344     -211078.21      19.030796     -211059.18     -1627.225       7749.1886      0.49359599   
      7740   302.5255      -211076.89      17.557916     -211059.33     -2836.4794      7760.9095      0.49285053   
      7750   318.16935     -211078         18.465851     -211059.53     -788.02195      7769.9967      0.49227413   
      7760   303.20827     -211077.36      17.597542     -211059.76      337.11337      7777.8499      0.49177709   
      7770   305.59853     -211077.75      17.736268     -211060.01      3834.0399      7786.0734      0.49125768   
      7780   317.97468     -211078.73      18.454553     -211060.28      1183.0208      7797.0775      0.49056437   
      7790   301.48142     -211078.02      17.49732      -211060.52      1362.9243      7809.3335      0.48979447   
      7800   319.6839      -211079.28      18.553752     -211060.73     -3865.1426      7821.9703      0.48900318   
      7810   300.64896     -211078.35      17.449006     -211060.9      -1434.0231      7831.433       0.48841232   
      7820   290.99519     -211077.94      16.888722     -211061.05     -928.237        7838.9829      0.48794192   
      7830   298.57396     -211078.51      17.328577     -211061.18      2349.6369      7845.8584      0.48751433   
      7840   297.04469     -211078.54      17.239822     -211061.3       1379.1335      7854.3622      0.4869865    
      7850   293.45182     -211078.43      17.031299     -211061.4      -338.78587      7863.9745      0.48639125   
      7860   287.66897     -211078.17      16.695676     -211061.47     -2040.3123      7872.9121      0.48583908   
      7870   294.377       -211078.61      17.084995     -211061.53     -3176.5763      7879.6002      0.48542671   
      7880   294.51878     -211078.67      17.093224     -211061.58     -1173.2854      7883.2839      0.48519988   
      7890   289.69356     -211078.44      16.813178     -211061.62      469.9859       7885.6183      0.48505624   
      7900   285.28343     -211078.22      16.557224     -211061.66      3866.8149      7888.593       0.48487333   
      7910   284.88783     -211078.22      16.534264     -211061.69      2241.4495      7894.7664      0.48449418   
      7920   289.32959     -211078.49      16.792054     -211061.7       977.6244       7903.0293      0.48398762   
      7930   291.16382     -211078.59      16.898509     -211061.69     -1723.4727      7911.8019      0.48345098   
      7940   295.70722     -211078.83      17.162198     -211061.67     -470.93454      7918.9906      0.48301211   
      7950   300.12524     -211079.07      17.41861      -211061.65      53.662724      7925.3677      0.48262346   
      7960   315.53387     -211079.95      18.312893     -211061.64      1207.4153      7931.7308      0.48223628   
      7970   292.27772     -211078.6       16.963157     -211061.63      221.94688      7938.8742      0.48180237   
      7980   305.92237     -211079.38      17.755063     -211061.62     -1514.8754      7946.0222      0.48136895   
      7990   305.18719     -211079.33      17.712395     -211061.61     -2116.6531      7951.5167      0.48103632   
      8000   295.18697     -211078.74      17.132004     -211061.61     -1204.3536      7954.9313      0.48082984   
Loop time of 1228.21 on 6 procs for 2000 steps with 450 atoms

Performance: 0.070 ns/day, 341.169 hours/ns, 1.628 timesteps/s, 732.775 atom-step/s
165.7% CPU use with 1 MPI tasks x 6 OpenMP threads

MPI task timing breakdown:
Section |  min time  |  avg time  |  max time  |%varavg| %total
---------------------------------------------------------------
Pair    | 1227.9     | 1227.9     | 1227.9     |   0.0 | 99.97
Neigh   | 0.21122    | 0.21122    | 0.21122    |   0.0 |  0.02
Comm    | 0.0525     | 0.0525     | 0.0525     |   0.0 |  0.00
Output  | 0.015794   | 0.015794   | 0.015794   |   0.0 |  0.00
Modify  | 0.043964   | 0.043964   | 0.043964   |   0.0 |  0.00
Other   |            | 0.01407    |            |       |  0.00

Nlocal:            450 ave         450 max         450 min
Histogram: 1 0 0 0 0 0 0 0 0 0
Nghost:           4561 ave        4561 max        4561 min
Histogram: 1 0 0 0 0 0 0 0 0 0
Neighs:              0 ave           0 max           0 min
Histogram: 1 0 0 0 0 0 0 0 0 0
FullNghs:       186640 ave      186640 max      186640 min
Histogram: 1 0 0 0 0 0 0 0 0 0

Total # of neighbors = 186640
Ave neighs/atom = 414.75556
Neighbor list builds = 41
Dangerous builds = 0

write_data      data.system.after_production nocoeff
System init for write_data ...
Generated 0 of 6 mixed pair_coeff terms from geometric mixing rule
Total wall time: 1:32:18
