LAMMPS (10 Sep 2025)
  using 8 OpenMP thread(s) per MPI task
# ------------------------------------------------------------------
# LAMMPS input: NVT MD with MACE-OFF23 (medium) ML interatomic potential
# Model: MACE-OFF23_medium.model-lammps.pt
#
# EDIT THESE BEFORE RUNNING:
#   1. "data.system"      -> your actual LAMMPS data file
#   2. the element list on the pair_coeff line -> must match, in order,
#      the atom TYPES you defined in your data file (a subset of the
#      10 elements MACE-OFF23 was trained on: H C N O F P S Cl Br I)
#   3. group/region/thermodynamic settings -> your actual system
# ------------------------------------------------------------------

units           metal
boundary        p p p
atom_style      atomic
atom_modify     map yes
newton          on off          # "newton on off" = newton_pair on, newton_bond off.
                                 # pair_style mace requires newton pair ON.
                                 # KOKKOS full-neighbor-list mode requires
                                 # newton bond OFF (moot anyway: atom_style
                                 # atomic has no bonded terms).

# ---- geometry / topology ----
read_data       data.system
Reading data file ...
  orthogonal box = (0 0 0) to (16.925 16.925 16.925)
  1 by 1 by 1 MPI processor grid
  reading atoms ...
  450 atoms
  read_data CPU = 0.013 seconds

# ---- MACE pair style ----
# no_domain_decomposition: recommended for a single MPI rank + threading
# (typical for small-to-medium systems). Drop it if you are running
# genuine multi-rank domain decomposition on a large system.
pair_style      mace no_domain_decomposition
pair_coeff      * * MACE-OFF23_medium.model-lammps.pt H C N O

# ---- neighbor settings ----
neighbor        2.0 bin
neigh_modify    every 1 delay 0 check yes

# ---- timestep ----
# MACE-OFF23 is an all-electron organic-chemistry potential with
# explicit H; use a conservative fs-scale timestep.
timestep        0.0005          # 0.5 fs

# ---- common variables ----
variable        Tinit  equal 300.0
variable        Trun   equal 300.0
variable        Patm   equal 1.01325     # 1 atm in bar (metal units use bar)

thermo_style    custom step temp pe ke etotal press vol density
thermo          10

# ------------------------------------------------------------------
# Stage 0: energy minimization
# The packmol-packed box was placed with a finite distance tolerance,
# not energy-minimized, so there can be close contacts / large initial
# forces. Minimize before assigning velocities or running dynamics.
# ------------------------------------------------------------------
min_style       cg
minimize        1.0e-6 1.0e-8 1000 10000
Generated 0 of 6 mixed pair_coeff terms from geometric mixing rule
Neighbor list info ...
  update: every = 1 steps, delay = 0 steps, check = yes
  max neighbors/atom: 2000, page size: 100000
  master list distance cutoff = 12
  ghost atom cutoff = 12
  binsize = 6, bins = 3 3 3
  1 neighbor lists, perpetual/occasional/extra = 1 0 0
  (1) pair mace, perpetual
      attributes: full, newton on
      pair build: full/bin/atomonly
      stencil: full/bin/3d
      bin: standard
Per MPI rank memory allocation (min/avg/max) = 11.85 | 11.85 | 11.85 Mbytes
   Step          Temp          PotEng         KinEng         TotEng         Press          Volume        Density    
         0   0              4131202        0              4131202        9.0222892e+08  4848.2615      0.78893608   
        10   0             -211025.94      0             -211025.94      39336.066      4848.2615      0.78893608   
        13   0             -211028.24      0             -211028.24      44256.404      4848.2615      0.78893608   
Loop time of 22.9963 on 8 procs for 13 steps with 450 atoms

127.0% CPU use with 1 MPI tasks x 8 OpenMP threads

Minimization stats:
  Stopping criterion = energy tolerance
  Energy initial, next-to-last, final = 
      4131202.01730514  -211028.176952283  -211028.244470991
  Force two-norm initial, final = 1.8331115e+08 42.367849
  Force max component initial, final = 1.1869868e+08 17.196567
  Final line search alpha, max atom move = 0.00023013401 0.0039575147
  Iterations, force evaluations = 13 36

MPI task timing breakdown:
Section |  min time  |  avg time  |  max time  |%varavg| %total
---------------------------------------------------------------
Pair    | 22.994     | 22.994     | 22.994     |   0.0 | 99.99
Neigh   | 0          | 0          | 0          |   0.0 |  0.00
Comm    | 0.0016594  | 0.0016594  | 0.0016594  |   0.0 |  0.01
Output  | 5.2194e-05 | 5.2194e-05 | 5.2194e-05 |   0.0 |  0.00
Modify  | 0          | 0          | 0          |   0.0 |  0.00
Other   |            | 0.0008596  |            |       |  0.00

Nlocal:            450 ave         450 max         450 min
Histogram: 1 0 0 0 0 0 0 0 0 0
Nghost:           6300 ave        6300 max        6300 min
Histogram: 1 0 0 0 0 0 0 0 0 0
Neighs:              0 ave           0 max           0 min
Histogram: 1 0 0 0 0 0 0 0 0 0
FullNghs:       301172 ave      301172 max      301172 min
Histogram: 1 0 0 0 0 0 0 0 0 0

Total # of neighbors = 301172
Ave neighs/atom = 669.27111
Neighbor list builds = 0
Dangerous builds = 0

reset_timestep  0

# ---- initial velocities (after minimization) ----
velocity        all create ${Tinit} 12345 mom yes rot yes dist gaussian
velocity        all create 300 12345 mom yes rot yes dist gaussian

# ------------------------------------------------------------------
# Stage 1: short NVT relaxation at fixed volume
# Lets local structure (bond lengths, close contacts) relax under
# real dynamics before the box is allowed to change size.
# ------------------------------------------------------------------
fix             1 all nvt temp ${Tinit} ${Trun} $(100.0*dt)
fix             1 all nvt temp 300 ${Trun} $(100.0*dt)
fix             1 all nvt temp 300 300 $(100.0*dt)
fix             1 all nvt temp 300 300 0.050000000000000002776
run             2000                     # 1 ps
Generated 0 of 6 mixed pair_coeff terms from geometric mixing rule
Per MPI rank memory allocation (min/avg/max) = 10.73 | 10.73 | 10.73 Mbytes
   Step          Temp          PotEng         KinEng         TotEng         Press          Volume        Density    
         0   300           -211028.24      17.411342     -211010.83      48092.287      4848.2615      0.78893608   
        10   519.19814     -211041.08      30.13312      -211010.95      36379.096      4848.2615      0.78893608   
        20   642.20079     -211048.67      37.271924     -211011.4       29285.349      4848.2615      0.78893608   
        30   681.65101     -211052.26      39.561528     -211012.7       19525.721      4848.2615      0.78893608   
        40   657.84431     -211052.44      38.17984      -211014.26      17257.812      4848.2615      0.78893608   
        50   719.11602     -211057.52      41.735915     -211015.78      13064.683      4848.2615      0.78893608   
        60   684.73483     -211057.11      39.740507     -211017.37      18691.119      4848.2615      0.78893608   
        70   722.97091     -211061.25      41.959645     -211019.29      18116.947      4848.2615      0.78893608   
        80   631.90999     -211057.96      36.674669     -211021.28      17613.862      4848.2615      0.78893608   
        90   638.83234     -211060.24      37.076427     -211023.16      15758.441      4848.2615      0.78893608   
       100   564.76472     -211057.72      32.777705     -211024.95      13220.094      4848.2615      0.78893608   
       110   574.22683     -211059.9       33.326865     -211026.57      15269.262      4848.2615      0.78893608   
       120   558.43019     -211060.61      32.410062     -211028.2       10153.261      4848.2615      0.78893608   
       130   544.72431     -211061.33      31.614603     -211029.72      11993.798      4848.2615      0.78893608   
       140   531.69663     -211062.09      30.858505     -211031.23      15953.42       4848.2615      0.78893608   
       150   532.0225      -211063.59      30.877418     -211032.71      17743.801      4848.2615      0.78893608   
       160   516.87442     -211064.25      29.998257     -211034.25      21816.993      4848.2615      0.78893608   
       170   478.24876     -211063.45      27.756508     -211035.7       14874.68       4848.2615      0.78893608   
       180   481.45025     -211065.01      27.942316     -211037.07      12900.016      4848.2615      0.78893608   
       190   466.96592     -211065.49      27.101677     -211038.39      8798.6005      4848.2615      0.78893608   
       200   447.48903     -211065.61      25.971281     -211039.64      11664.513      4848.2615      0.78893608   
       210   439.95926     -211066.36      25.53427      -211040.82      13844.47       4848.2615      0.78893608   
       220   440.57856     -211067.55      25.570213     -211041.98      11765.007      4848.2615      0.78893608   
       230   410.37447     -211066.9       23.817233     -211043.09      14592.919      4848.2615      0.78893608   
       240   398.95156     -211067.24      23.154273     -211044.09      9965.107       4848.2615      0.78893608   
       250   401.35051     -211068.36      23.293502     -211045.07      11983.39       4848.2615      0.78893608   
       260   376.40438     -211067.82      21.845684     -211045.98      7741.3637      4848.2615      0.78893608   
       270   377.21657     -211068.75      21.892822     -211046.86      7632.4446      4848.2615      0.78893608   
       280   360.7135      -211068.62      20.93502      -211047.68      8126.7595      4848.2615      0.78893608   
       290   362.13363     -211069.51      21.017441     -211048.49      10691.015      4848.2615      0.78893608   
       300   349.47117     -211069.53      20.28254      -211049.25      13439.508      4848.2615      0.78893608   
       310   358.42955     -211070.78      20.802465     -211049.98      9561.1647      4848.2615      0.78893608   
       320   361.1474      -211071.66      20.960203     -211050.7       6117.335       4848.2615      0.78893608   
       330   353.12287     -211071.9       20.494477     -211051.41      2510.5954      4848.2615      0.78893608   
       340   346.11801     -211072.18      20.087929     -211052.1       2214.2228      4848.2615      0.78893608   
       350   327.74464     -211071.75      19.02158      -211052.73      4159.3785      4848.2615      0.78893608   
       360   337.06818     -211072.91      19.562698     -211053.34      6475.8765      4848.2615      0.78893608   
       370   318.77655     -211072.42      18.501091     -211053.92      6697.1643      4848.2615      0.78893608   
       380   328.91057     -211073.56      19.089248     -211054.47      8940.0796      4848.2615      0.78893608   
       390   324.33678     -211073.84      18.823795     -211055.02      3385.6225      4848.2615      0.78893608   
       400   340.75914     -211075.35      19.776912     -211055.57      5447.6666      4848.2615      0.78893608   
       410   330.16708     -211075.26      19.162173     -211056.1       941.52891      4848.2615      0.78893608   
       420   335.73606     -211076.09      19.485384     -211056.61      7343.3284      4848.2615      0.78893608   
       430   336.36681     -211076.66      19.521991     -211057.14      8887.6527      4848.2615      0.78893608   
       440   311.62717     -211075.68      18.086157     -211057.59      9298.5587      4848.2615      0.78893608   
       450   323.9763      -211076.87      18.802873     -211058.07      9090.1149      4848.2615      0.78893608   
       460   299.30129     -211075.93      17.37079      -211058.56      1657.5799      4848.2615      0.78893608   
       470   303.91232     -211076.66      17.638404     -211059.02      6023.0075      4848.2615      0.78893608   
       480   299.09898     -211076.82      17.359048     -211059.46      1910.7665      4848.2615      0.78893608   
       490   298.18575     -211077.17      17.306047     -211059.87      6418.7377      4848.2615      0.78893608   
       500   290.67591     -211077.09      16.870192     -211060.22      4572.7977      4848.2615      0.78893608   
       510   289.0971      -211077.3       16.778561     -211060.53      3056.3619      4848.2615      0.78893608   
       520   286.00431     -211077.44      16.599063     -211060.84      6392.4677      4848.2615      0.78893608   
       530   274.86178     -211077.04      15.952375     -211061.08      3147.5498      4848.2615      0.78893608   
       540   294.89691     -211078.45      17.115169     -211061.33      7030.3386      4848.2615      0.78893608   
       550   291.71882     -211078.54      16.93072      -211061.61      2221.24        4848.2615      0.78893608   
       560   299.7954      -211079.28      17.399467     -211061.88      3976.783       4848.2615      0.78893608   
       570   292.01603     -211079.03      16.94797      -211062.08      3290.2925      4848.2615      0.78893608   
       580   301.09706     -211079.79      17.475012     -211062.32      3413.1799      4848.2615      0.78893608   
       590   291.04964     -211079.4       16.891882     -211062.51      5484.2947      4848.2615      0.78893608   
       600   300.4737      -211080.15      17.438834     -211062.71      2246.0392      4848.2615      0.78893608   
       610   285.7877      -211079.49      16.586491     -211062.9       5052.7284      4848.2615      0.78893608   
       620   275.88529     -211079.05      16.011776     -211063.04      1300.3147      4848.2615      0.78893608   
       630   291.66194     -211080.12      16.927419     -211063.2       615.24517      4848.2615      0.78893608   
       640   254.73332     -211078.06      14.784163     -211063.28      465.91719      4848.2615      0.78893608   
       650   258.86577     -211078.35      15.024001     -211063.33      636.42052      4848.2615      0.78893608   
       660   261.55208     -211078.55      15.179909     -211063.37      5540.9524      4848.2615      0.78893608   
       670   267.88995     -211078.92      15.547745     -211063.37      4481.5881      4848.2615      0.78893608   
       680   272.14076     -211079.12      15.794453     -211063.32      6597.9796      4848.2615      0.78893608   
       690   283.09227     -211079.69      16.430054     -211063.26      1127.3854      4848.2615      0.78893608   
       700   288.69068     -211079.92      16.754974     -211063.17      2095.65        4848.2615      0.78893608   
       710   276.86774     -211079.12      16.068796     -211063.05      1986.1616      4848.2615      0.78893608   
       720   288.49913     -211079.66      16.743856     -211062.92      4250.4057      4848.2615      0.78893608   
       730   280.93134     -211079.05      16.304639     -211062.74      5857.0822      4848.2615      0.78893608   
       740   274.48213     -211078.48      15.93034      -211062.55      5351.3977      4848.2615      0.78893608   
       750   298.42435     -211079.7       17.319894     -211062.38      4257.5221      4848.2615      0.78893608   
       760   311.44312     -211080.27      18.075475     -211062.2       1319.0169      4848.2615      0.78893608   
       770   303.5395      -211079.62      17.616767     -211062         994.65664      4848.2615      0.78893608   
       780   324.44367     -211080.68      18.829999     -211061.85     -888.24303      4848.2615      0.78893608   
       790   313.54306     -211079.87      18.197351     -211061.67      1309.2031      4848.2615      0.78893608   
       800   305.11159     -211079.22      17.708007     -211061.51      1384.1036      4848.2615      0.78893608   
       810   305.04998     -211079.09      17.704431     -211061.39      4939.1544      4848.2615      0.78893608   
       820   290.0877      -211078.06      16.836054     -211061.23      2494.3569      4848.2615      0.78893608   
       830   307.11186     -211078.9       17.824098     -211061.08      4239.2076      4848.2615      0.78893608   
       840   298.20841     -211078.27      17.307361     -211060.96      535.56919      4848.2615      0.78893608   
       850   318.88782     -211079.37      18.507549     -211060.86      3554.2039      4848.2615      0.78893608   
       860   325.34192     -211079.61      18.882131     -211060.73      2196.4375      4848.2615      0.78893608   
       870   335.57649     -211080.13      19.476123     -211060.66      5025.2261      4848.2615      0.78893608   
       880   334.15225     -211080         19.393463     -211060.6       6164.7099      4848.2615      0.78893608   
       890   308.68207     -211078.5       17.91523      -211060.58      5454.6455      4848.2615      0.78893608   
       900   321.5694      -211079.26      18.663182     -211060.6       5974.8509      4848.2615      0.78893608   
       910   311.61566     -211078.7       18.085489     -211060.61      1151.6458      4848.2615      0.78893608   
       920   314.00645     -211078.88      18.224245     -211060.65      5075.0373      4848.2615      0.78893608   
       930   295.2486      -211077.86      17.135581     -211060.73      842.68725      4848.2615      0.78893608   
       940   311.63587     -211078.9       18.086662     -211060.81      4597.6031      4848.2615      0.78893608   
       950   309.57366     -211078.84      17.966976     -211060.88      2097.5966      4848.2615      0.78893608   
       960   305.07838     -211078.67      17.70608      -211060.96      3805.2377      4848.2615      0.78893608   
       970   319.77154     -211079.63      18.558838     -211061.07      2619.9635      4848.2615      0.78893608   
       980   307.71545     -211079.01      17.859129     -211061.16      926.90598      4848.2615      0.78893608   
       990   318.23581     -211079.73      18.469708     -211061.26      2991.6856      4848.2615      0.78893608   
      1000   310.83867     -211079.45      18.040394     -211061.41      1941.2321      4848.2615      0.78893608   
      1010   317.02979     -211080         18.399713     -211061.6       5562.6255      4848.2615      0.78893608   
      1020   309.62204     -211079.74      17.969783     -211061.77      3971.5781      4848.2615      0.78893608   
      1030   313.30608     -211080.15      18.183597     -211061.97      5281.5937      4848.2615      0.78893608   
      1040   315.96231     -211080.52      18.337759     -211062.18      4648.2362      4848.2615      0.78893608   
      1050   298.14945     -211079.69      17.30394      -211062.38      4265.7007      4848.2615      0.78893608   
      1060   304.4686      -211080.27      17.670689     -211062.6       3892.6376      4848.2615      0.78893608   
      1070   300.88175     -211080.25      17.462516     -211062.79      1504.3227      4848.2615      0.78893608   
      1080   288.59682     -211079.73      16.749526     -211062.98      1862.5132      4848.2615      0.78893608   
      1090   291.15618     -211080.08      16.898066     -211063.18      1471.6052      4848.2615      0.78893608   
      1100   302.79252     -211080.95      17.573413     -211063.38      1089.5063      4848.2615      0.78893608   
      1110   281.52393     -211079.89      16.339031     -211063.55      2623.1412      4848.2615      0.78893608   
      1120   286.11229     -211080.32      16.60533      -211063.71     -84.288697      4848.2615      0.78893608   
      1130   296.79154     -211081.07      17.225129     -211063.84      2162.7842      4848.2615      0.78893608   
      1140   287.54295     -211080.65      16.688362     -211063.96     -1199.3683      4848.2615      0.78893608   
      1150   282.0747      -211080.45      16.370997     -211064.08      2129.5459      4848.2615      0.78893608   
      1160   280.35945     -211080.41      16.271447     -211064.14      870.07561      4848.2615      0.78893608   
      1170   278.14809     -211080.34      16.143105     -211064.19      4490.9961      4848.2615      0.78893608   
      1180   267.2926      -211079.77      15.513076     -211064.25      5847.8708      4848.2615      0.78893608   
      1190   285.64591     -211080.88      16.578262     -211064.3       4411.3843      4848.2615      0.78893608   
      1200   269.35017     -211079.93      15.632493     -211064.29      4035.3607      4848.2615      0.78893608   
      1210   273.08052     -211080.13      15.848994     -211064.28     -170.7256       4848.2615      0.78893608   
      1220   287.62824     -211080.92      16.693312     -211064.22      1987.9416      4848.2615      0.78893608   
      1230   272.32422     -211079.93      15.8051       -211064.13     -102.91689      4848.2615      0.78893608   
      1240   277.91987     -211080.16      16.129859     -211064.03      5651.7455      4848.2615      0.78893608   
      1250   277.25152     -211079.97      16.09107      -211063.88      2326.2203      4848.2615      0.78893608   
      1260   287.77439     -211080.43      16.701794     -211063.73      4718.1015      4848.2615      0.78893608   
      1270   279.10189     -211079.76      16.198461     -211063.56      2120.5936      4848.2615      0.78893608   
      1280   296.7702      -211080.61      17.223891     -211063.39     -907.64933      4848.2615      0.78893608   
      1290   303.5741      -211080.81      17.618774     -211063.19      1957.221       4848.2615      0.78893608   
      1300   290.45701     -211079.83      16.857488     -211062.98      876.06555      4848.2615      0.78893608   
      1310   308.05454     -211080.65      17.878809     -211062.78      7903.7273      4848.2615      0.78893608   
      1320   299.95111     -211079.97      17.408504     -211062.56      4013.7589      4848.2615      0.78893608   
      1330   301.46497     -211079.86      17.496365     -211062.37      7888.028       4848.2615      0.78893608   
      1340   306.20689     -211079.96      17.771576     -211062.19      1519.1699      4848.2615      0.78893608   
      1350   317.53248     -211080.48      18.428888     -211062.05      4114.284       4848.2615      0.78893608   
      1360   308.21589     -211079.78      17.888174     -211061.89      1143.3919      4848.2615      0.78893608   
      1370   323.10734     -211080.5       18.752441     -211061.75      2590.9134      4848.2615      0.78893608   
      1380   338.24928     -211081.29      19.631246     -211061.65      3787.4361      4848.2615      0.78893608   
      1390   306.798       -211079.37      17.805882     -211061.56      3036.0436      4848.2615      0.78893608   
      1400   323.14392     -211080.28      18.754564     -211061.52      4858.9358      4848.2615      0.78893608   
      1410   324.16919     -211080.31      18.814068     -211061.5      -456.40723      4848.2615      0.78893608   
      1420   332.16638     -211080.81      19.278208     -211061.53      3754.1236      4848.2615      0.78893608   
      1430   334.05294     -211080.95      19.3877       -211061.57     -376.69333      4848.2615      0.78893608   
      1440   325.97126     -211080.56      18.918656     -211061.64      4089.7273      4848.2615      0.78893608   
      1450   327.15213     -211080.74      18.987192     -211061.75      1125.0455      4848.2615      0.78893608   
      1460   320.22911     -211080.46      18.585395     -211061.87      3150.7126      4848.2615      0.78893608   
      1470   320.40853     -211080.61      18.595808     -211062.02      4131.4267      4848.2615      0.78893608   
      1480   308.29157     -211080.09      17.892566     -211062.2       5358.5553      4848.2615      0.78893608   
      1490   320.94841     -211081.02      18.627141     -211062.39      6243.2688      4848.2615      0.78893608   
      1500   314.11781     -211080.84      18.230709     -211062.61      3443.9333      4848.2615      0.78893608   
      1510   291.71731     -211079.74      16.930632     -211062.81      2427.9727      4848.2615      0.78893608   
      1520   314.57604     -211081.27      18.257303     -211063.01      2163.2765      4848.2615      0.78893608   
      1530   299.23048     -211080.57      17.36668      -211063.2       2306.8058      4848.2615      0.78893608   
      1540   304.51717     -211081.09      17.673508     -211063.42      7038.826       4848.2615      0.78893608   
      1550   299.75151     -211080.99      17.39692      -211063.59      4274.1186      4848.2615      0.78893608   
      1560   297.61176     -211081.06      17.272734     -211063.79      6350.0489      4848.2615      0.78893608   
      1570   298.59979     -211081.32      17.330077     -211063.99     -737.19735      4848.2615      0.78893608   
      1580   312.05881     -211082.3       18.111209     -211064.19     -725.90858      4848.2615      0.78893608   
      1590   297.84725     -211081.65      17.286401     -211064.36     -1196.4299      4848.2615      0.78893608   
      1600   298.96063     -211081.89      17.351019     -211064.54      1121.0634      4848.2615      0.78893608   
      1610   304.14687     -211082.37      17.652017     -211064.72      5828.7788      4848.2615      0.78893608   
      1620   285.81837     -211081.46      16.588271     -211064.87      5486.4692      4848.2615      0.78893608   
      1630   291.05237     -211081.92      16.892041     -211065.03      5949.8355      4848.2615      0.78893608   
      1640   279.42612     -211081.39      16.217279     -211065.17     -624.39831      4848.2615      0.78893608   
      1650   297.11742     -211082.55      17.244043     -211065.31     -1120.8305      4848.2615      0.78893608   
      1660   279.86903     -211081.66      16.242984     -211065.42     -466.13286      4848.2615      0.78893608   
      1670   294.1075      -211082.59      17.069354     -211065.52      3161.9136      4848.2615      0.78893608   
      1680   288.62985     -211082.35      16.751443     -211065.6       5095.917       4848.2615      0.78893608   
      1690   263.11834     -211080.92      15.270811     -211065.65      3497.9864      4848.2615      0.78893608   
      1700   286.65318     -211082.33      16.636721     -211065.69      2401.7931      4848.2615      0.78893608   
      1710   264.21722     -211081.02      15.334587     -211065.69     -865.06546      4848.2615      0.78893608   
      1720   268.45731     -211081.23      15.580673     -211065.65      135.55818      4848.2615      0.78893608   
      1730   265.34121     -211080.99      15.399821     -211065.59      2334.7404      4848.2615      0.78893608   
      1740   274.24025     -211081.42      15.916302     -211065.5       4582.9814      4848.2615      0.78893608   
      1750   280.65189     -211081.65      16.28842      -211065.37      4950.7554      4848.2615      0.78893608   
      1760   275.4598      -211081.21      15.987082     -211065.22      3661.8563      4848.2615      0.78893608   
      1770   285.52814     -211081.63      16.571426     -211065.05      2647.4678      4848.2615      0.78893608   
      1780   284.39703     -211081.35      16.50578      -211064.84      2458.4541      4848.2615      0.78893608   
      1790   289.68232     -211081.45      16.812526     -211064.63      1153.276       4848.2615      0.78893608   
      1800   287.91668     -211081.11      16.710052     -211064.4       3532.7633      4848.2615      0.78893608   
      1810   284.48677     -211080.67      16.510988     -211064.16      1775.2342      4848.2615      0.78893608   
      1820   295.15106     -211081.06      17.12992      -211063.93      3654.9572      4848.2615      0.78893608   
      1830   295.90016     -211080.88      17.173396     -211063.7       850.81619      4848.2615      0.78893608   
      1840   299.81914     -211080.87      17.400845     -211063.47      3686.4545      4848.2615      0.78893608   
      1850   307.74396     -211081.09      17.860784     -211063.23      2183.0588      4848.2615      0.78893608   
      1860   304.38611     -211080.67      17.665902     -211063         1304.153       4848.2615      0.78893608   
      1870   303.92625     -211080.39      17.639212     -211062.75      1379.4218      4848.2615      0.78893608   
      1880   297.94596     -211079.81      17.29213      -211062.52      760.96697      4848.2615      0.78893608   
      1890   314.13917     -211080.55      18.231948     -211062.31      3635.5021      4848.2615      0.78893608   
      1900   315.85645     -211080.47      18.331615     -211062.14      2892.4847      4848.2615      0.78893608   
      1910   311.88911     -211080.08      18.101359     -211061.98      6937.8292      4848.2615      0.78893608   
      1920   325.85878     -211080.76      18.912129     -211061.85      3018.9782      4848.2615      0.78893608   
      1930   318.33937     -211080.2       18.475718     -211061.73      2326.4433      4848.2615      0.78893608   
      1940   318.86327     -211080.13      18.506124     -211061.62     -1428.4826      4848.2615      0.78893608   
      1950   318.57221     -211080.03      18.489232     -211061.54      565.6927       4848.2615      0.78893608   
      1960   304.99607     -211079.17      17.701302     -211061.47      2955.4514      4848.2615      0.78893608   
      1970   321.8457      -211080.1       18.679218     -211061.42      6283.7759      4848.2615      0.78893608   
      1980   322.19879     -211080.11      18.699711     -211061.41      5382.7053      4848.2615      0.78893608   
      1990   319.85904     -211079.98      18.563917     -211061.41      3421.6107      4848.2615      0.78893608   
      2000   313.01904     -211079.6       18.166938     -211061.43     -908.58283      4848.2615      0.78893608   
Loop time of 447.843 on 8 procs for 2000 steps with 450 atoms

Performance: 0.193 ns/day, 124.401 hours/ns, 4.466 timesteps/s, 2.010 katom-step/s
183.4% CPU use with 1 MPI tasks x 8 OpenMP threads

MPI task timing breakdown:
Section |  min time  |  avg time  |  max time  |%varavg| %total
---------------------------------------------------------------
Pair    | 447.31     | 447.31     | 447.31     |   0.0 | 99.88
Neigh   | 0.45386    | 0.45386    | 0.45386    |   0.0 |  0.10
Comm    | 0.045565   | 0.045565   | 0.045565   |   0.0 |  0.01
Output  | 0.0042433  | 0.0042433  | 0.0042433  |   0.0 |  0.00
Modify  | 0.021345   | 0.021345   | 0.021345   |   0.0 |  0.00
Other   |            | 0.009949   |            |       |  0.00

Nlocal:            450 ave         450 max         450 min
Histogram: 1 0 0 0 0 0 0 0 0 0
Nghost:           5915 ave        5915 max        5915 min
Histogram: 1 0 0 0 0 0 0 0 0 0
Neighs:              0 ave           0 max           0 min
Histogram: 1 0 0 0 0 0 0 0 0 0
FullNghs:       301388 ave      301388 max      301388 min
Histogram: 1 0 0 0 0 0 0 0 0 0

Total # of neighbors = 301388
Ave neighs/atom = 669.75111
Neighbor list builds = 58
Dangerous builds = 0
unfix           1

# ------------------------------------------------------------------
# Stage 2: NPT equilibration
# Lets the box find its equilibrium volume/density under MACE-OFF23
# at 1 atm, 300 K. Isotropic coupling assumes a homogeneous liquid;
# switch to "aniso" if your system is anisotropic (e.g. a crystal).
# ------------------------------------------------------------------
fix             2 all npt temp ${Tinit} ${Trun} $(100.0*dt)                         iso ${Patm} ${Patm} $(1000.0*dt)
fix             2 all npt temp 300 ${Trun} $(100.0*dt)                         iso ${Patm} ${Patm} $(1000.0*dt)
fix             2 all npt temp 300 300 $(100.0*dt)                         iso ${Patm} ${Patm} $(1000.0*dt)
fix             2 all npt temp 300 300 0.050000000000000002776                         iso ${Patm} ${Patm} $(1000.0*dt)
fix             2 all npt temp 300 300 0.050000000000000002776                         iso 1.01325 ${Patm} $(1000.0*dt)
fix             2 all npt temp 300 300 0.050000000000000002776                         iso 1.01325 1.01325 $(1000.0*dt)
fix             2 all npt temp 300 300 0.050000000000000002776                         iso 1.01325 1.01325 0.5
run             4000                     # 2 ps
Generated 0 of 6 mixed pair_coeff terms from geometric mixing rule
Per MPI rank memory allocation (min/avg/max) = 10.73 | 10.73 | 10.73 Mbytes
   Step          Temp          PotEng         KinEng         TotEng         Press          Volume        Density    
      2000   313.01904     -211079.6       18.166938     -211061.43     -908.58283      4848.2615      0.78893608   
      2010   306.31719     -211079.21      17.777977     -211061.43     -1285.7988      4847.7518      0.78901902   
      2020   322.91901     -211080.19      18.74151      -211061.45      732.85304      4846.819       0.78917087   
      2030   300.93429     -211078.92      17.465566     -211061.45      3536.2122      4846.2966      0.78925594   
      2040   319.76653     -211080.04      18.558547     -211061.49      6289.8318      4847.0646      0.78913089   
      2050   306.92911     -211079.36      17.813492     -211061.55      3047.9848      4849.948       0.78866174   
      2060   308.7284      -211079.55      17.917919     -211061.63      5669.5349      4854.2507      0.78796268   
      2070   300.49164     -211079.16      17.439875     -211061.72      880.99365      4860.3167      0.78697924   
      2080   303.59803     -211079.44      17.620163     -211061.82      3558.0964      4867.152       0.78587404   
      2090   312.98758     -211080.09      18.165112     -211061.92      465.08868      4875.0307      0.78460395   
      2100   318.02195     -211080.5       18.457296     -211062.04      3417.7936      4883.4557      0.78325035   
      2110   308.10476     -211080.11      17.881724     -211062.23      3997.4447      4893.0003      0.78172249   
      2120   304.92018     -211080.12      17.696898     -211062.42      4130.3532      4904.113       0.77995111   
      2130   302.0255      -211080.17      17.528897     -211062.65      3367.1762      4916.7542      0.77794582   
      2140   294.94402     -211079.99      17.117904     -211062.87      286.91655      4930.5484      0.77576936   
      2150   298.34521     -211080.4       17.315301     -211063.08      481.40697      4944.5885      0.77356657   
      2160   289.23806     -211080.03      16.786742     -211063.25     -494.00516      4958.7408      0.7713588    
      2170   300.70329     -211080.84      17.452159     -211063.39     -869.84507      4972.769       0.76918279   
      2180   291.59022     -211080.44      16.923257     -211063.52      561.67916      4986.5052      0.76706395   
      2190   288.02156     -211080.34      16.716139     -211063.62      2084.6257      5000.4605      0.76492322   
      2200   285.81654     -211080.3       16.588165     -211063.72      4242.1971      5015.1986      0.76267536   
      2210   275.43055     -211079.79      15.985385     -211063.8       4009.2027      5031.4461      0.76021253   
      2220   294.24021     -211080.92      17.077056     -211063.84      113.12749      5048.9492      0.75757711   
      2230   279.69762     -211080.09      16.233036     -211063.86     -680.626        5066.4293      0.75496334   
      2240   304.12632     -211081.49      17.650824     -211063.84     -2588.4514      5083.253       0.75246469   
      2250   292.11486     -211080.79      16.953705     -211063.83      1204.5011      5099.0683      0.75013084   
      2260   314.22397     -211082.08      18.23687      -211063.84      1554.5906      5114.9685      0.74779902   
      2270   305.59184     -211081.61      17.735879     -211063.87      3112.15        5131.4183      0.74540178   
      2280   291.99287     -211080.84      16.946625     -211063.89      875.40833      5148.7709      0.74288961   
      2290   294.81197     -211081         17.11024      -211063.89     -985.30015      5166.2023      0.74038301   
      2300   270.79333     -211079.56      15.71625      -211063.85     -1870.5932      5182.905       0.73799701   
      2310   302.61991     -211081.36      17.563395     -211063.8      -1327.458       5198.3983      0.73579748   
      2320   285.81628     -211080.34      16.588149     -211063.76     -1243.6844      5212.8876      0.73375233   
      2330   298.34168     -211081.04      17.315097     -211063.73      535.04124      5226.5158      0.73183905   
      2340   302.7152      -211081.26      17.568926     -211063.69      296.19119      5239.9242      0.72996636   
      2350   306.40411     -211081.44      17.783022     -211063.66      1483.0004      5253.2406      0.72811598   
      2360   297.57334     -211080.92      17.270504     -211063.64     -344.62545      5266.7335      0.7262506    
      2370   295.50246     -211080.74      17.150314     -211063.58     -2366.2365      5279.7114      0.72446542   
      2380   305.48638     -211081.28      17.729759     -211063.55     -1096.6461      5291.4136      0.72286324   
      2390   304.81108     -211081.19      17.690566     -211063.5      -2547.3434      5302.0695      0.72141045   
      2400   302.74944     -211081.06      17.570913     -211063.48      1432.2255      5311.5832      0.72011832   
      2410   297.97162     -211080.76      17.293619     -211063.47     -1157.2118      5321.0635      0.71883532   
      2420   309.77875     -211081.44      17.978879     -211063.46      1992.4654      5330.1618      0.71760831   
      2430   291.5551      -211080.35      16.921218     -211063.43     -1745.2947      5339.5343      0.71634869   
      2440   291.78123     -211080.33      16.934342     -211063.39     -596.57154      5348.1753      0.71519128   
      2450   282.74713     -211079.75      16.410023     -211063.34     -2057.4572      5356.1255      0.71412971   
      2460   295.07095     -211080.4       17.12527      -211063.28     -1050.284       5362.9687      0.71321848   
      2470   309.21937     -211081.17      17.946414     -211063.22      40.125843      5369.1172      0.71240172   
      2480   293.37553     -211080.19      17.026872     -211063.16      1276.1416      5375.0002      0.711622     
      2490   315.74597     -211081.45      18.325203     -211063.12      3462.7934      5381.365       0.71078033   
      2500   311.72426     -211081.18      18.091792     -211063.08      1898.2645      5388.9234      0.7097834    
      2510   301.82361     -211080.57      17.51718      -211063.05      2270.098       5397.3431      0.70867616   
      2520   296.09853     -211080.18      17.184909     -211063        -655.25722      5406.4603      0.70748108   
      2530   298.72428     -211080.26      17.337302     -211062.92      462.04542      5415.2547      0.70633212   
      2540   312.46402     -211080.96      18.134726     -211062.82     -1033.2189      5423.9287      0.70520256   
      2550   299.65433     -211080.11      17.39128      -211062.72      2085.3821      5432.064       0.70414641   
      2560   302.19909     -211080.16      17.538972     -211062.62      1728.0574      5440.7786      0.70301857   
      2570   304.59743     -211080.17      17.678167     -211062.5       3669.8394      5450.2174      0.70180106   
      2580   296.18121     -211079.54      17.189707     -211062.35     -1206.2147      5460.7442      0.70044818   
      2590   299.27367     -211079.52      17.369187     -211062.15      531.56374      5470.8893      0.69914929   
      2600   301.10535     -211079.4       17.475494     -211061.92     -2159.8157      5480.5998      0.69791054   
      2610   308.24546     -211079.58      17.88989      -211061.69      2002.449       5489.5215      0.69677628   
      2620   315.0428      -211079.76      18.284393     -211061.47      507.67677      5498.6955      0.69561378   
      2630   329.90636     -211080.43      19.147041     -211061.28      2885.9076      5508.1803      0.69441597   
      2640   318.94415     -211079.64      18.510819     -211061.13      3383.4966      5518.7123      0.69309074   
      2650   324.95504     -211079.89      18.859677     -211061.03      2176.9335      5530.6147      0.69159915   
      2660   325.84403     -211079.85      18.911272     -211060.94      1221.3221      5543.4208      0.69000145   
      2670   326.60596     -211079.82      18.955493     -211060.87     -881.18816      5556.4181      0.68838743   
      2680   330.44276     -211080.01      19.178173     -211060.84      1450.2438      5568.9924      0.68683311   
      2690   345.02989     -211080.88      20.024777     -211060.86      163.63648      5581.7392      0.68526462   
      2700   324.30971     -211079.74      18.822224     -211060.91      1683.7202      5594.4952      0.68370215   
      2710   338.70799     -211080.69      19.657868     -211061.03      1836.623       5607.7385      0.68208751   
      2720   325.83285     -211080.08      18.910624     -211061.17      1876.212       5621.5443      0.68041238   
      2730   310.47282     -211079.36      18.019161     -211061.34      1630.3324      5636.0447      0.67866182   
      2740   320.29664     -211080.1       18.589314     -211061.51     -2143.4307      5650.6961      0.67690215   
      2750   309.3193      -211079.63      17.952213     -211061.68     -296.12864      5664.2691      0.67528013   
      2760   325.03848     -211080.72      18.86452      -211061.86     -1370.3329      5677.1018      0.67375371   
      2770   306.57133     -211079.83      17.792727     -211062.04      1704.2491      5689.1567      0.67232607   
      2780   316.97549     -211080.61      18.396562     -211062.22      2378.4483      5701.6811      0.67084923   
      2790   320.10071     -211080.99      18.577942     -211062.41      3296.5282      5715.1261      0.66927104   
      2800   302.93047     -211080.17      17.58142      -211062.59      1708.2711      5729.8956      0.66754591   
      2810   299.51998     -211080.09      17.383482     -211062.71     -781.10456      5745.1354      0.66577515   
      2820   292.24012     -211079.76      16.960975     -211062.8      -1766.958       5759.6943      0.66409226   
      2830   311.40462     -211080.94      18.073241     -211062.87      1073.4974      5773.2884      0.66252855   
      2840   294.24195     -211080.03      17.077157     -211062.95      1931.5085      5786.9968      0.66095913   
      2850   294.33984     -211080.11      17.082838     -211063.02      4293.9256      5801.729       0.65928078   
      2860   297.72026     -211080.36      17.27903      -211063.08      1565.6774      5818.0677      0.65742933   
      2870   281.91824     -211079.49      16.361916     -211063.13      2041.0358      5835.2156      0.65549736   
      2880   286.94772     -211079.79      16.653816     -211063.14     -2340.0795      5852.6548      0.65354416   
      2890   275.15192     -211079.07      15.969214     -211063.1      -2293.848       5868.6495      0.65176296   
      2900   274.17209     -211078.98      15.912346     -211063.07     -1275.9264      5882.9845      0.65017481   
      2910   297.2824      -211080.28      17.253618     -211063.02      339.44681      5896.1751      0.64872028   
      2920   294.39508     -211080.07      17.086045     -211062.98      2437.8951      5909.3441      0.6472746    
      2930   292.96247     -211079.94      17.002898     -211062.94     -576.78902      5923.1371      0.64576732   
      2940   305.71679     -211080.64      17.743132     -211062.89      419.72856      5936.6605      0.6442963    
      2950   298.37302     -211080.13      17.316915     -211062.81     -2829.3367      5949.7463      0.64287924   
      2960   297.28734     -211080         17.253905     -211062.75      371.33476      5961.4324      0.64161902   
      2970   301.34196     -211080.17      17.489226     -211062.68     -1617.0748      5972.6877      0.64040991   
      2980   300.59418     -211080.05      17.445826     -211062.61      1482.3412      5983.19        0.63928579   
      2990   306.1877      -211080.3       17.770462     -211062.53     -761.43097      5993.9772      0.63813528   
      3000   299.36264     -211079.82      17.37435      -211062.45      746.03621      6004.3766      0.63703006   
      3010   302.38791     -211079.92      17.549931     -211062.37      95.017354      6014.8741      0.63591828   
      3020   303.98685     -211079.93      17.64273      -211062.28     -840.94242      6025.2111      0.63482728   
      3030   297.09103     -211079.44      17.242511     -211062.2      -566.22778      6034.9195      0.63380603   
      3040   297.41349     -211079.35      17.261226     -211062.09     -3311.3717      6043.8701      0.6328674    
      3050   307.01772     -211079.81      17.818635     -211061.99     -1157.2909      6050.9633      0.63212553   
      3060   305.64458     -211079.64      17.73894      -211061.91     -2470.457       6056.8979      0.63150616   
      3070   312.49533     -211079.97      18.136543     -211061.84      395.23766      6061.546       0.63102192   
      3080   319.01879     -211080.29      18.51515      -211061.77     -801.07936      6066.0327      0.63055519   
      3090   310.16037     -211079.72      18.001027     -211061.72      996.70651      6070.2698      0.63011505   
      3100   303.30725     -211079.29      17.603287     -211061.68     -67.809934      6074.8422      0.62964078   
      3110   305.31755     -211079.34      17.71996      -211061.62     -2645.5747      6079.2514      0.62918411   
      3120   297.81045     -211078.85      17.284265     -211061.57     -2134.7637      6082.1784      0.62888131   
      3130   307.34462     -211079.37      17.837607     -211061.53     -2590.859       6083.6509      0.6287291    
      3140   305.64181     -211079.23      17.73878      -211061.49      2203.5185      6083.8798      0.62870545   
      3150   299.35326     -211078.82      17.373806     -211061.45      2216.9957      6085.041       0.62858547   
      3160   309.74474     -211079.39      17.976905     -211061.42      2727.0297      6087.6675      0.62831427   
      3170   289.92848     -211078.2       16.826813     -211061.37     -1540.5368      6091.5178      0.62791713   
      3180   305.26543     -211079.02      17.716935     -211061.3      -3224.3775      6094.677       0.62759165   
      3190   294.53848     -211078.32      17.094367     -211061.22     -3931.2         6095.8559      0.62747028   
      3200   303.3048      -211078.73      17.603145     -211061.13     -470.95278      6094.9595      0.62756256   
      3210   316.14111     -211079.36      18.348136     -211061.01      2164.1627      6093.7831      0.6276837    
      3220   292.16965     -211077.85      16.956885     -211060.9       3152.1768      6093.7675      0.62768532   
      3230   318.28978     -211079.25      18.47284      -211060.78      831.51635      6095.4848      0.62750848   
      3240   297.68594     -211077.92      17.277038     -211060.64     -1486.5118      6097.6085      0.62728993   
      3250   307.87446     -211078.37      17.868358     -211060.5      -826.44783      6099.0739      0.62713921   
      3260   314.42812     -211078.6       18.248718     -211060.35     -1215.8749      6099.907       0.62705356   
      3270   315.49214     -211078.52      18.310471     -211060.21      1491.9349      6100.2285      0.6270205    
      3280   334.8924      -211079.52      19.43642      -211060.08      1429.2766      6101.3526      0.62690498   
      3290   324.50251     -211078.81      18.833413     -211059.97      1848.1507      6103.3926      0.62669545   
      3300   325.63163     -211078.8       18.898945     -211059.91     -485.93816      6106.4188      0.62638487   
      3310   304.58769     -211077.52      17.677601     -211059.84      313.27504      6109.3594      0.62608338   
      3320   317.56163     -211078.22      18.43058      -211059.79     -1033.7804      6112.3156      0.62578058   
      3330   310.17815     -211077.76      18.002059     -211059.75      957.82024      6114.9043      0.62551565   
      3340   302.71884     -211077.31      17.569137     -211059.74     -1219.0609      6117.6466      0.62523526   
      3350   320.59624     -211078.32      18.606702     -211059.72      1325.1381      6120.0645      0.62498825   
      3360   310.8954      -211077.77      18.043686     -211059.72     -797.12461      6122.7823      0.62471082   
      3370   310.35566     -211077.77      18.012361     -211059.76      1516.6831      6125.3647      0.62444745   
      3380   306.27268     -211077.58      17.775394     -211059.81      343.38672      6128.4146      0.62413668   
      3390   320.04672     -211078.47      18.574809     -211059.89      1546.1672      6131.7579      0.62379638   
      3400   317.00679     -211078.41      18.398378     -211060.01      2347.3837      6135.9867      0.62336647   
      3410   311.19563     -211078.2       18.061111     -211060.14     -2171.4191      6141.1485      0.62284252   
      3420   324.90937     -211079.16      18.857027     -211060.31      1362.5515      6145.7113      0.6223801    
      3430   308.29263     -211078.39      17.892628     -211060.5      -2778.5423      6150.3034      0.62191539   
      3440   312.1666      -211078.84      18.117464     -211060.72      4629.4242      6154.205       0.62152112   
      3450   312.32489     -211079.08      18.126651     -211060.96     -1229.3023      6159.7472      0.62096191   
      3460   304.77339     -211078.89      17.688379     -211061.2       2339.8132      6165.2817      0.62040447   
      3470   302.57186     -211078.98      17.560606     -211061.42     -1927.8525      6171.5102      0.61977834   
      3480   305.36583     -211079.33      17.722762     -211061.61     -1037.1319      6176.9065      0.61923689   
      3490   282.7619      -211078.16      16.41088      -211061.75     -158.28025      6181.642       0.61876251   
      3500   305.30614     -211079.59      17.719298     -211061.87     -925.47323      6186.0329      0.61832332   
      3510   302.84323     -211079.56      17.576356     -211061.98      2968.8959      6190.3027      0.61789682   
      3520   290.29554     -211078.91      16.848116     -211062.06     -1602.8575      6195.6562      0.61736292   
      3530   297.97898     -211079.42      17.294046     -211062.13      2004.7387      6200.7428      0.61685648   
      3540   294.75621     -211079.27      17.107003     -211062.17     -1577.129       6206.4257      0.61629165   
      3550   298.38274     -211079.52      17.317479     -211062.2       2941.9956      6211.7817      0.61576027   
      3560   284.55938     -211078.74      16.515202     -211062.23     -174.04261      6218.3343      0.61511141   
      3570   308.08879     -211080.13      17.880797     -211062.25      1948.4611      6225.143       0.61443864   
      3580   295.71979     -211079.42      17.162927     -211062.26      441.76557      6232.8362      0.61368023   
      3590   296.71215     -211079.5       17.220522     -211062.28      975.68209      6240.8767      0.61288959   
      3600   290.98531     -211079.18      16.888149     -211062.29     -232.42386      6249.3676      0.61205687   
      3610   292.96439     -211079.28      17.00301      -211062.27      860.36971      6257.8398      0.61122824   
      3620   297.65589     -211079.54      17.275295     -211062.27      1421.1806      6266.7493      0.61035925   
      3630   289.35048     -211079.02      16.793267     -211062.23     -69.136163      6276.386       0.60942211   
      3640   292.89578     -211079.2       16.999028     -211062.2       45.941006      6285.8914      0.60850055   
      3650   291.15654     -211079.06      16.898086     -211062.16     -1226.1886      6295.1701      0.60760366   
      3660   307.53292     -211079.97      17.848536     -211062.12      1492.6925      6303.777       0.60677406   
      3670   294.44389     -211079.19      17.088877     -211062.1      -1173.4711      6312.7756      0.60590913   
      3680   312.32098     -211080.2       18.126424     -211062.07      2496.4357      6321.4409      0.60507857   
      3690   300.2925      -211079.48      17.428318     -211062.05     -586.425        6331.0173      0.60416331   
      3700   309.3143      -211079.99      17.951923     -211062.04      2238.3033      6340.7269      0.60323815   
      3710   311.18457     -211080.09      18.06047      -211062.03     -1025.6696      6351.2134      0.60224215   
      3720   306.17276     -211079.78      17.769595     -211062.01      1530.5078      6361.5471      0.60126386   
      3730   310.02865     -211080.01      17.993382     -211062.02      931.1179       6372.4657      0.60023365   
      3740   293.83617     -211079.07      17.053606     -211062.02     -263.83797      6383.8827      0.59916019   
      3750   298.71466     -211079.35      17.336743     -211062.02      513.34512      6395.2129      0.59809868   
      3760   293.96057     -211079.06      17.060827     -211062        -2696.8584      6406.3021      0.59706338   
      3770   292.9906      -211078.98      17.004531     -211061.98      980.56355      6416.1204      0.59614972   
      3780   284.44812     -211078.46      16.508745     -211061.95     -1684.958       6425.8213      0.59524972   
      3790   299.17593     -211079.28      17.363514     -211061.91      613.91741      6434.7632      0.59442256   
      3800   303.21324     -211079.45      17.597831     -211061.86     -706.04019      6443.6706      0.59360086   
      3810   301.00139     -211079.26      17.46946      -211061.79     -596.09714      6452.1096      0.59282446   
      3820   302.13292     -211079.25      17.535132     -211061.72     -499.4416       6460.1396      0.59208757   
      3830   294.57762     -211078.72      17.096639     -211061.62     -811.17961      6467.5254      0.59141142   
      3840   294.10993     -211078.6       17.069495     -211061.53      2645.6034      6474.6709      0.59075873   
      3850   284.00829     -211077.91      16.483218     -211061.43      387.99462      6482.8052      0.59001748   
      3860   288.51185     -211078.06      16.744594     -211061.32      2711.4113      6491.4777      0.58922922   
      3870   292.35903     -211078.14      16.967876     -211061.17      385.51783      6501.3717      0.58833252   
      3880   300.00851     -211078.43      17.411836     -211061.02      1114.1727      6511.593       0.58740901   
      3890   304.89236     -211078.53      17.695283     -211060.83     -1776.236       6522.257       0.58644859   
      3900   300.62251     -211078.09      17.447471     -211060.64     -1285.9213      6531.7533      0.58559597   
      3910   305.09978     -211078.16      17.707322     -211060.46     -23.641584      6540.5025      0.58481262   
      3920   308.79494     -211078.19      17.921781     -211060.27     -242.89264      6548.9787      0.58405571   
      3930   292.73506     -211077.1       16.9897       -211060.11      341.86498      6557.3652      0.58330873   
      3940   309.99564     -211077.93      17.991467     -211059.94     -536.20101      6565.7969      0.58255965   
      3950   307.88864     -211077.67      17.869181     -211059.8      -48.72776       6573.7855      0.58185171   
      3960   298.34922     -211076.99      17.315534     -211059.67     -432.37563      6581.6341      0.58115786   
      3970   311.64861     -211077.67      18.087402     -211059.58     -283.85659      6588.8976      0.5805172    
      3980   298.72097     -211076.83      17.337109     -211059.5       77.37788       6595.9734      0.57989446   
      3990   309.257       -211077.39      17.948597     -211059.44      1064.3232      6602.9381      0.57928278   
      4000   318.30421     -211077.87      18.473678     -211059.39      39.832628      6610.4686      0.57862288   
      4010   306.90166     -211077.16      17.811899     -211059.35      2684.2189      6618.3043      0.57793782   
      4020   304.69839     -211077.02      17.684026     -211059.34      1790.3618      6627.5604      0.57713067   
      4030   314.77613     -211077.59      18.268916     -211059.32      2630.4146      6638.2738      0.57619925   
      4040   309.73967     -211077.29      17.97661      -211059.32     -634.74751      6650.1204      0.5751728    
      4050   304.95546     -211077.02      17.698946     -211059.32     -778.06244      6661.6399      0.5741782    
      4060   320.08019     -211077.93      18.576752     -211059.36     -840.38534      6672.2201      0.57326771   
      4070   324.8693      -211078.27      18.854701     -211059.41     -1246.1611      6682.008       0.57242798   
      4080   315.06823     -211077.79      18.285868     -211059.5       1247.8494      6691.0269      0.57165641   
      4090   313.12497     -211077.77      18.173086     -211059.59     -193.54034      6700.4031      0.57085646   
      4100   313.43418     -211077.9       18.191032     -211059.71      1473.5178      6709.9132      0.57004737   
      4110   303.24249     -211077.43      17.599529     -211059.83     -2864.4653      6719.6492      0.56922144   
      4120   317.17466     -211078.36      18.408121     -211059.96     -1983.8635      6727.66        0.56854365   
      4130   307.41386     -211077.95      17.841626     -211060.1      -1940.6499      6733.8303      0.56802268   
      4140   300.34649     -211077.69      17.431451     -211060.26      1021.1932      6738.783       0.56760522   
      4150   311.17642     -211078.47      18.059996     -211060.41      2673.4826      6744.3785      0.5671343    
      4160   299.67722     -211077.94      17.392608     -211060.55      2201.9732      6751.6717      0.56652167   
      4170   301.74934     -211078.2       17.512869     -211060.69      1793.3304      6760.6385      0.56577028   
      4180   310.00099     -211078.77      17.991777     -211060.78     -2565.5796      6770.4018      0.56495441   
      4190   318.46622     -211079.36      18.483081     -211060.88     -1811.2309      6778.6339      0.56426832   
      4200   296.60164     -211078.19      17.214108     -211060.97     -1618.8033      6785.2534      0.56371784   
      4210   303.7003      -211078.68      17.626099     -211061.06      1624.1107      6790.9311      0.56324653   
      4220   298.46653     -211078.46      17.322343     -211061.14     -158.52185      6797.195       0.56272748   
      4230   279.15472     -211077.41      16.201527     -211061.2       1373.9102      6803.4992      0.56220605   
      4240   291.17154     -211078.15      16.898957     -211061.25     -1944.1679      6810.1283      0.56165878   
      4250   292.45456     -211078.26      16.973421     -211061.29     -576.08474      6815.5288      0.56121373   
      4260   292.29117     -211078.29      16.963938     -211061.32     -2742.8112      6819.9436      0.56085044   
      4270   308.11246     -211079.23      17.882171     -211061.34      265.31317      6822.758       0.56061909   
      4280   303.11729     -211078.96      17.592262     -211061.37      381.71215      6825.453       0.56039773   
      4290   287.25792     -211078.05      16.671819     -211061.38      1658.98        6828.6995      0.5601313    
      4300   289.53759     -211078.18      16.804126     -211061.37      869.32049      6832.993       0.55977935   
      4310   288.54883     -211078.1       16.746741     -211061.35      746.75633      6837.9818      0.55937095   
      4320   269.50881     -211076.96      15.6417       -211061.32      1758.8996      6843.5213      0.55891817   
      4330   296.16785     -211078.46      17.188932     -211061.27     -528.07225      6849.9461      0.55839394   
      4340   292.02213     -211078.16      16.948323     -211061.21     -238.70539      6856.0809      0.55789429   
      4350   283.10164     -211077.58      16.430598     -211061.15     -1271.3353      6861.729       0.55743507   
      4360   304.97206     -211078.77      17.699909     -211061.07     -634.36103      6866.5182      0.55704628   
      4370   297.14103     -211078.24      17.245413     -211061        -598.4438       6870.6954      0.5567076    
      4380   305.05269     -211078.63      17.704589     -211060.93      632.30079      6874.5147      0.55639831   
      4390   302.03604     -211078.38      17.529509     -211060.85     -46.324545      6878.686       0.55606091   
      4400   316.03171     -211079.13      18.341787     -211060.79     -1054.1139      6882.8155      0.55572729   
      4410   310.52684     -211078.74      18.022296     -211060.72     -3236.9771      6886.0708      0.55546458   
      4420   302.14192     -211078.2       17.535654     -211060.66     -1597.5019      6887.1504      0.5553775    
      4430   303.4757      -211078.24      17.613063     -211060.62     -691.22249      6886.8677      0.5554003    
      4440   295.61008     -211077.74      17.15656      -211060.58      2597.1263      6886.2524      0.55544992   
      4450   297.79299     -211077.85      17.283251     -211060.57      2312.3623      6887.1785      0.55537524   
      4460   302.08896     -211078.07      17.53258      -211060.54      2017.4921      6889.9593      0.55515108   
      4470   300.46846     -211077.95      17.43853      -211060.51     -958.46218      6893.9423      0.55483034   
      4480   301.92896     -211078         17.523294     -211060.48     -2914.4689      6897.3343      0.55455749   
      4490   315.37567     -211078.74      18.303711     -211060.44     -1422.4864      6898.7572      0.55444311   
      4500   294.15028     -211077.48      17.071837     -211060.41     -793.91103      6898.998       0.55442375   
      4510   303.94766     -211078.02      17.640455     -211060.37      3562.024       6899.0898      0.55441638   
      4520   307.78482     -211078.2       17.863155     -211060.34     -543.60282      6901.0463      0.55425919   
      4530   291.78904     -211077.25      16.934795     -211060.31      2667.2128      6903.3672      0.55407286   
      4540   290.46932     -211077.14      16.858202     -211060.28     -2583.3673      6906.7201      0.55380388   
      4550   289.20194     -211077.02      16.784646     -211060.23      584.989        6908.8957      0.55362949   
      4560   296.74868     -211077.38      17.222642     -211060.16     -2808.4457      6910.7006      0.55348489   
      4570   295.59032     -211077.23      17.155413     -211060.07      850.30801      6910.9835      0.55346224   
      4580   301.06732     -211077.45      17.473286     -211059.97      1085.1738      6911.5156      0.55341963   
      4590   307.6985      -211077.69      17.858145     -211059.84      1415.0599      6912.9582      0.55330413   
      4600   316.6202      -211078.05      18.375941     -211059.68      2734.6487      6915.6307      0.55309031   
      4610   313.10623     -211077.66      18.171999     -211059.49      131.51221      6920.0878      0.55273408   
      4620   303.39545     -211076.89      17.608406     -211059.29      2062.2336      6925.084       0.5523353    
      4630   307.62829     -211076.93      17.854071     -211059.08     -2755.9296      6930.8936      0.55187233   
      4640   328.13471     -211077.91      19.044218     -211058.86      1238.399       6935.3621      0.55151676   
      4650   322.1367      -211077.38      18.696107     -211058.68     -1477.3219      6939.9308      0.55115368   
      4660   330.64825     -211077.73      19.190099     -211058.54      2825.8401      6944.0627      0.55082573   
      4670   326.40496     -211077.37      18.943827     -211058.43      904.93478      6949.6701      0.55038129   
      4680   323.47989     -211077.13      18.774063     -211058.36      1891.8483      6956.3369      0.54985381   
      4690   317.24771     -211076.73      18.412361     -211058.32      224.99596      6964.0861      0.54924197   
      4700   318.03803     -211076.75      18.458229     -211058.29     -2180.1277      6971.8552      0.54862992   
      4710   324.87784     -211077.15      18.855197     -211058.3      -693.43334      6978.0899      0.54813974   
      4720   325.6436      -211077.24      18.89964      -211058.34     -1810.7696      6983.3177      0.54772939   
      4730   334.51334     -211077.84      19.41442      -211058.43      3175.2453      6987.708       0.54738526   
      4740   335.29637     -211078.03      19.459865     -211058.57      849.65301      6993.7504      0.54691234   
      4750   324.37952     -211077.58      18.826275     -211058.76      3587.736       7001.0374      0.54634308   
      4760   317.12974     -211077.37      18.405514     -211058.97      178.69163      7010.4167      0.54561213   
      4770   327.73845     -211078.2       19.02122      -211059.18     -619.31019      7020.1886      0.54485265   
      4780   302.17135     -211076.93      17.537362     -211059.39     -1189.0182      7029.3826      0.54414002   
      4790   310.80291     -211077.61      18.038318     -211059.57     -1050.7797      7037.5909      0.54350536   
      4800   309.16111     -211077.7       17.943032     -211059.76      1905.1986      7045.2239      0.54291651   
      4810   307.78144     -211077.79      17.862959     -211059.92      1242.0352      7053.8674      0.54225124   
      4820   310.85426     -211078.12      18.041299     -211060.08      2451.3095      7063.7108      0.54149561   
      4830   300.85249     -211077.66      17.460818     -211060.2      -1222.9746      7074.8688      0.5406416    
      4840   308.60896     -211078.22      17.910987     -211060.31     -1151.9032      7085.2836      0.5398469    
      4850   285.58925     -211076.96      16.574973     -211060.39     -2835.8346      7094.3373      0.53915795   
      4860   307.61127     -211078.31      17.853083     -211060.46     -721.77791      7101.3432      0.53862604   
      4870   299.9377      -211077.94      17.407726     -211060.53     -1411.472       7107.4037      0.53816675   
      4880   302.86452     -211078.16      17.577592     -211060.59      1133.236       7112.6195      0.53777211   
      4890   312.45947     -211078.78      18.134462     -211060.64     -1554.9143      7118.2008      0.53735045   
      4900   314.54835     -211078.97      18.255696     -211060.71      1530.4248      7123.1076      0.53698029   
      4910   302.60866     -211078.34      17.562742     -211060.78     -1631.7548      7128.5192      0.53657264   
      4920   290.88368     -211077.72      16.88225      -211060.84      737.54706      7133.1742      0.53622248   
      4930   306.30989     -211078.69      17.777554     -211060.91     -2751.7144      7137.5976      0.53589017   
      4940   280.57525     -211077.25      16.283972     -211060.97      731.5511       7140.4318      0.53567746   
      4950   288.50766     -211077.77      16.744352     -211061.03      446.98864      7143.3482      0.53545876   
      4960   303.73702     -211078.69      17.62823      -211061.07      629.97332      7146.7149      0.53520652   
      4970   300.2376      -211078.52      17.425131     -211061.1       1500.5164      7150.7014      0.53490814   
      4980   308.53224     -211079.04      17.906534     -211061.13     -1826.5316      7155.4949      0.5345498    
      4990   300.95246     -211078.63      17.46662      -211061.16     -103.96246      7159.3576      0.5342614    
      5000   287.47631     -211077.87      16.684494     -211061.19     -3816.4768      7162.436       0.53403177   
      5010   290.87982     -211078.1       16.882026     -211061.22     -140.26539      7163.0978      0.53398243   
      5020   289.91004     -211078.07      16.825743     -211061.24     -2109.5468      7162.8943      0.53399761   
      5030   285.37979     -211077.82      16.562817     -211061.26      1937.9316      7161.5508      0.53409778   
      5040   297.80616     -211078.56      17.284016     -211061.27     -326.86458      7161.1283      0.53412929   
      5050   307.46591     -211079.13      17.844647     -211061.28      88.213062      7160.7426      0.53415806   
      5060   306.8101      -211079.11      17.806585     -211061.3      -1950.4941      7160.23        0.5341963    
      5070   292.09684     -211078.27      16.95266      -211061.32     -2367.0309      7158.3309      0.53433802   
      5080   298.82788     -211078.66      17.343314     -211061.32      199.88652      7154.8733      0.53459624   
      5090   300.44576     -211078.75      17.437212     -211061.32      913.75538      7151.4696      0.53485068   
      5100   291.99289     -211078.25      16.946626     -211061.3       4324.7459      7149.2076      0.53501991   
      5110   293.60713     -211078.33      17.040314     -211061.29     -304.68171      7149.6715      0.53498519   
      5120   295.7306      -211078.44      17.163555     -211061.28      1038.4481      7150.4909      0.53492389   
      5130   292.02283     -211078.2       16.948364     -211061.26     -3382.5612      7151.3924      0.53485645   
      5140   294.40789     -211078.32      17.086788     -211061.23      632.00705      7150.3973      0.53493089   
      5150   286.70732     -211077.83      16.639863     -211061.19     -1627.7093      7149.1522      0.53502405   
      5160   292.82688     -211078.13      16.99503      -211061.14      1491.5011      7147.2346      0.5351676    
      5170   293.24567     -211078.08      17.019335     -211061.06     -115.34249      7145.9959      0.53526036   
      5180   298.6659      -211078.31      17.333913     -211060.97      114.20154      7144.9216      0.53534085   
      5190   305.65819     -211078.6       17.739731     -211060.86     -211.23613      7143.9236      0.53541563   
      5200   307.30285     -211078.57      17.835183     -211060.74     -8.6560081      7142.8482      0.53549624   
      5210   306.22988     -211078.37      17.77291      -211060.6       940.09219      7141.9562      0.53556313   
      5220   316.33819     -211078.81      18.359575     -211060.45     -1510.4435      7141.5028      0.53559713   
      5230   309.46821     -211078.27      17.960856     -211060.31      989.68216      7140.4208      0.53567828   
      5240   318.02305     -211078.63      18.45736      -211060.17     -1287.8342      7139.5685      0.53574224   
      5250   319.01216     -211078.56      18.514766     -211060.05      2362.1899      7138.3682      0.53583232   
      5260   314.10852     -211078.18      18.230169     -211059.95     -2.9996675      7138.3896      0.53583071   
      5270   327.22333     -211078.87      18.991324     -211059.88      1692.8958      7138.894       0.53579285   
      5280   313.40645     -211078.01      18.189422     -211059.82     -2222.2827      7140.1881      0.53569574   
      5290   317.34531     -211078.21      18.418025     -211059.8      -2121.5822      7140.0647      0.535705     
      5300   305.76822     -211077.54      17.746116     -211059.79     -2718.9044      7138.0667      0.53585495   
      5310   307.89894     -211077.67      17.869779     -211059.8       339.61256      7134.1291      0.53615071   
      5320   319.48611     -211078.35      18.542273     -211059.81      1879.0168      7130.3844      0.53643228   
      5330   315.97219     -211078.19      18.338332     -211059.86      1331.1723      7127.9996      0.53661176   
      5340   317.17993     -211078.32      18.408427     -211059.92      254.11232      7126.815       0.53670095   
      5350   309.85925     -211077.98      17.983551     -211060        -2775.9189      7125.6804      0.53678641   
      5360   313.10611     -211078.26      18.171991     -211060.09     -1142.9054      7122.8511      0.53699963   
      5370   293.89493     -211077.26      17.057017     -211060.2      -961.20329      7118.9372      0.53729486   
      5380   301.78529     -211077.83      17.514956     -211060.31      3359.3368      7114.7167      0.53761359   
      5390   296.96969     -211077.67      17.235469     -211060.44      1159.9193      7112.5977      0.53777375   
      5400   287.23349     -211077.25      16.670401     -211060.58      2008.9676      7111.729       0.53783945   
      5410   295.86402     -211077.9       17.171298     -211060.73     -2338.9782      7111.8867      0.53782752   
      5420   293.63217     -211077.92      17.041767     -211060.88     -1086.8692      7110.6608      0.53792024   
      5430   298.0688      -211078.33      17.299259     -211061.03     -2659.2241      7108.2562      0.53810221   
      5440   288.31455     -211077.91      16.733143     -211061.18     -358.57487      7104.1181      0.53841565   
      5450   287.19814     -211077.97      16.66835      -211061.3       429.65909      7099.5756      0.53876015   
      5460   293.69515     -211078.47      17.045422     -211061.43      183.51754      7095.3744      0.53907915   
      5470   287.94473     -211078.24      16.71168      -211061.53      55.788008      7091.4068      0.53938076   
      5480   294.30563     -211078.71      17.080853     -211061.63     -2461.2874      7087.3042      0.53969299   
      5490   285.87737     -211078.31      16.591695     -211061.72     -154.76939      7081.7629      0.54011529   
      5500   283.69801     -211078.24      16.46521      -211061.78     -1812.8255      7075.7588      0.54057359   
      5510   290.52029     -211078.69      16.86116      -211061.82      1378.1823      7068.8904      0.54109884   
      5520   270.58618     -211077.55      15.704228     -211061.85     -698.49019      7062.5812      0.54158222   
      5530   287.11096     -211078.52      16.66329      -211061.85      2234.7154      7056.3214      0.54206267   
      5540   285.01176     -211078.38      16.541457     -211061.84     -753.04782      7051.1905      0.5424571    
      5550   292.94282     -211078.82      17.001758     -211061.82      1756.2396      7046.0985      0.54284912   
      5560   289.27646     -211078.58      16.788971     -211061.79     -819.94257      7041.7979      0.54318065   
      5570   280.54455     -211078.03      16.28219      -211061.75      301.56293      7037.3119      0.5435269    
      5580   302.217       -211079.23      17.540011     -211061.69     -1565.8606      7032.7266      0.54388128   
      5590   294.46771     -211078.71      17.09026      -211061.62     -867.38027      7027.1859      0.54431012   
      5600   289.11104     -211078.31      16.77937      -211061.53      1365.0661      7021.193       0.54477471   
      5610   310.87097     -211079.45      18.042269     -211061.41     -532.61039      7015.9899      0.54517872   
      5620   299.17592     -211078.61      17.363514     -211061.25      1775.5174      7011.013       0.54556572   
      5630   302.33836     -211078.61      17.547055     -211061.07     -2021.6308      7006.8412      0.54589054   
      5640   290.0552      -211077.68      16.834167     -211060.84      631.41666      7001.8653      0.54627849   
      5650   296.8477      -211077.82      17.228389     -211060.59     -2142.0635      6996.7746      0.54667595   
      5660   302.29703     -211077.85      17.544656     -211060.31      453.37809      6990.5708      0.54716109   
      5670   296.84163     -211077.26      17.228037     -211060.03      111.60894      6984.3479      0.54764861   
      5680   317.00839     -211078.17      18.398471     -211059.77      2454.2549      6978.5044      0.54810718   
      5690   306.85911     -211077.36      17.809429     -211059.55      1829.025       6974.4138      0.54842866   
      5700   330.89857     -211078.58      19.204627     -211059.38      539.60085      6971.7383      0.54863912   
      5710   320.13686     -211077.84      18.580041     -211059.26     -643.95033      6969.5211      0.54881366   
      5720   315.38853     -211077.51      18.304458     -211059.21     -1770.1216      6966.7359      0.54903307   
      5730   331.51908     -211078.42      19.24064      -211059.18     -1425.3081      6962.7306      0.5493489    
      5740   329.17226     -211078.31      19.104436     -211059.2      -157.67959      6957.6674      0.54974867   
      5750   328.78551     -211078.32      19.081989     -211059.24      1314.8048      6952.5966      0.55014962   
      5760   311.86651     -211077.4       18.100048     -211059.3       168.95501      6948.3698      0.55048428   
      5770   323.66498     -211078.17      18.784805     -211059.38     -275.80225      6944.4424      0.55079561   
      5780   315.79925     -211077.8       18.328295     -211059.47     -2350.65        6940.1432      0.55113681   
      5790   315.00778     -211077.87      18.28236      -211059.58     -159.66374      6934.4575      0.55158869   
      5800   313.64239     -211077.9       18.203116     -211059.7      -1183.6089      6928.3506      0.55207489   
      5810   308.0498      -211077.7       17.878534     -211059.82      1686.1796      6921.7548      0.55260096   
      5820   296.31141     -211077.13      17.197264     -211059.93     -342.41077      6916.0464      0.55305707   
      5830   326.16093     -211078.98      18.929664     -211060.05      1843.3662      6910.6         0.55349295   
      5840   304.20303     -211077.82      17.655276     -211060.17     -45.994221      6906.1864      0.55384667   
      5850   303.69736     -211077.91      17.625928     -211060.28      2257.9469      6902.3073      0.55415794   
      5860   311.70935     -211078.48      18.090927     -211060.39     -644.19463      6899.6742      0.55436942   
      5870   310.48446     -211078.54      18.019837     -211060.52      1163.708       6897.0955      0.55457669   
      5880   297.61251     -211077.91      17.272777     -211060.64     -951.31242      6895.0285      0.55474294   
      5890   292.49534     -211077.72      16.975788     -211060.75     -41.439674      6892.5789      0.55494009   
      5900   301.578       -211078.35      17.502925     -211060.84     -36.06349       6890.0296      0.55514542   
      5910   296.92683     -211078.16      17.232981     -211060.92     -61.853765      6887.4608      0.55535247   
      5920   306.15211     -211078.78      17.768396     -211061.01      1089.2648      6885.0227      0.55554913   
      5930   293.6904      -211078.14      17.045146     -211061.09     -1381.7556      6883.0286      0.55571008   
      5940   294.84001     -211078.28      17.111867     -211061.17     -469.03067      6880.34        0.55592723   
      5950   306.06772     -211079.02      17.763498     -211061.26     -3974.8564      6876.7763      0.55621533   
      5960   307.18127     -211079.17      17.828127     -211061.34      630.71948      6870.9606      0.55668612   
      5970   299.52093     -211078.81      17.383537     -211061.42      534.88954      6865.168       0.55715583   
      5980   303.22202     -211079.1       17.598341     -211061.5       3843.8357      6860.265       0.55755402   
      5990   316.60521     -211079.95      18.375071     -211061.57     -667.19764      6857.6214      0.55776896   
      6000   288.77026     -211078.43      16.759592     -211061.67     -796.94041      6854.9095      0.55798963   
Loop time of 730.517 on 8 procs for 4000 steps with 450 atoms

Performance: 0.237 ns/day, 101.461 hours/ns, 5.476 timesteps/s, 2.464 katom-step/s
180.1% CPU use with 1 MPI tasks x 8 OpenMP threads

MPI task timing breakdown:
Section |  min time  |  avg time  |  max time  |%varavg| %total
---------------------------------------------------------------
Pair    | 729.96     | 729.96     | 729.96     |   0.0 | 99.92
Neigh   | 0.38836    | 0.38836    | 0.38836    |   0.0 |  0.05
Comm    | 0.07286    | 0.07286    | 0.07286    |   0.0 |  0.01
Output  | 0.0080624  | 0.0080624  | 0.0080624  |   0.0 |  0.00
Modify  | 0.071182   | 0.071182   | 0.071182   |   0.0 |  0.01
Other   |            | 0.01701    |            |       |  0.00

Nlocal:            450 ave         450 max         450 min
Histogram: 1 0 0 0 0 0 0 0 0 0
Nghost:           4670 ave        4670 max        4670 min
Histogram: 1 0 0 0 0 0 0 0 0 0
Neighs:              0 ave           0 max           0 min
Histogram: 1 0 0 0 0 0 0 0 0 0
FullNghs:       212756 ave      212756 max      212756 min
Histogram: 1 0 0 0 0 0 0 0 0 0

Total # of neighbors = 212756
Ave neighs/atom = 472.79111
Neighbor list builds = 86
Dangerous builds = 0
unfix           2

write_data      data.system.after_npt_equil nocoeff
System init for write_data ...
Generated 0 of 6 mixed pair_coeff terms from geometric mixing rule

# ------------------------------------------------------------------
# Stage 3: production
# Continues at the NPT-equilibrated volume. Switch to NVT here instead
# if you want fixed-volume production once the density has converged.
# ------------------------------------------------------------------
fix             3 all npt temp ${Tinit} ${Trun} $(100.0*dt)                         iso ${Patm} ${Patm} $(1000.0*dt)
fix             3 all npt temp 300 ${Trun} $(100.0*dt)                         iso ${Patm} ${Patm} $(1000.0*dt)
fix             3 all npt temp 300 300 $(100.0*dt)                         iso ${Patm} ${Patm} $(1000.0*dt)
fix             3 all npt temp 300 300 0.050000000000000002776                         iso ${Patm} ${Patm} $(1000.0*dt)
fix             3 all npt temp 300 300 0.050000000000000002776                         iso 1.01325 ${Patm} $(1000.0*dt)
fix             3 all npt temp 300 300 0.050000000000000002776                         iso 1.01325 1.01325 $(1000.0*dt)
fix             3 all npt temp 300 300 0.050000000000000002776                         iso 1.01325 1.01325 0.5

dump            1 all custom 100 dump.mace_off23.lammpstrj id type element x y z
dump_modify     1 element H C N O sort id

run             2000                     # 1 ps production (still smoke-test scale)
Generated 0 of 6 mixed pair_coeff terms from geometric mixing rule
Per MPI rank memory allocation (min/avg/max) = 10.73 | 10.73 | 10.73 Mbytes
   Step          Temp          PotEng         KinEng         TotEng         Press          Volume        Density    
      6000   288.77026     -211078.43      16.759592     -211061.67     -796.94041      6854.9095      0.55798963   
      6010   284.48647     -211078.17      16.51097      -211061.66     -1571.0573      6854.8134      0.55799745   
      6020   303.43279     -211079.25      17.610573     -211061.64     -443.60603      6853.6816      0.55808959   
      6030   299.34249     -211078.98      17.373181     -211061.6       1847.5095      6852.3606      0.55819718   
      6040   293.22819     -211078.58      17.01832      -211061.57      517.97151      6852.0918      0.55821908   
      6050   284.59095     -211078.05      16.517034     -211061.53      2376.0612      6852.5353      0.55818295   
      6060   284.11695     -211077.97      16.489524     -211061.48     -2499.5342      6854.0479      0.55805977   
      6070   294.49296     -211078.51      17.091725     -211061.42     -394.41822      6854.2633      0.55804223   
      6080   296.59802     -211078.57      17.213898     -211061.36     -3316.7492      6853.612       0.55809526   
      6090   308.66963     -211079.2       17.914508     -211061.28      417.11705      6851.0926      0.5583005    
      6100   300.11425     -211078.61      17.417973     -211061.19     -766.69761      6848.4843      0.55851312   
      6110   323.91966     -211079.89      18.799586     -211061.09      932.45756      6845.7366      0.5587373    
      6120   314.47695     -211079.24      18.251552     -211060.99     -190.83214      6843.5724      0.558914     
      6130   302.94223     -211078.47      17.582102     -211060.88     -801.67456      6841.4417      0.55908806   
      6140   304.98466     -211078.48      17.70064      -211060.78     -450.55015      6838.7982      0.55930417   
      6150   302.89266     -211078.24      17.579225     -211060.66     -740.50376      6835.737       0.55955464   
      6160   308.18831     -211078.42      17.886573     -211060.54      2707.3657      6832.4155      0.55982666   
      6170   310.68846     -211078.44      18.031677     -211060.41     -255.37176      6830.5062      0.55998315   
      6180   310.5093      -211078.3       18.021278     -211060.28      1824.897       6828.9365      0.56011187   
      6190   303.18735     -211077.74      17.596328     -211060.14     -2316.8189      6828.1054      0.56018005   
      6200   321.90555     -211078.69      18.682691     -211060.01      894.61432      6826.2604      0.56033145   
      6210   310.90277     -211077.91      18.044114     -211059.86     -1309.9783      6824.4844      0.56047727   
      6220   305.88898     -211077.48      17.753125     -211059.73      1693.4734      6822.331       0.56065418   
      6230   323.00381     -211078.33      18.746432     -211059.59     -56.754665      6821.0157      0.56076229   
      6240   315.54079     -211077.75      18.313295     -211059.44     -777.75145      6819.8372      0.56085919   
      6250   325.72597     -211078.21      18.90442      -211059.3      -583.28705      6818.2024      0.56099367   
      6260   311.37254     -211077.25      18.071379     -211059.18     -1565.534       6815.9177      0.56118171   
      6270   315.8172      -211077.41      18.329337     -211059.08      3160.1799      6812.9989      0.56142213   
      6280   312.18861     -211077.11      18.118741     -211058.99     -464.60993      6811.5531      0.5615413    
      6290   323.03536     -211077.67      18.748263     -211058.92      2460.8477      6810.4679      0.56163078   
      6300   315.11919     -211077.14      18.288826     -211058.85     -1641.5625      6810.5088      0.5616274    
      6310   325.2738      -211077.68      18.878177     -211058.8       1968.4315      6810.1549      0.56165659   
      6320   329.17124     -211077.87      19.104376     -211058.77     -673.33087      6810.6842      0.56161294   
      6330   314.12247     -211076.99      18.230978     -211058.76      2132.6323      6811.2501      0.56156628   
      6340   305.75436     -211076.53      17.745312     -211058.79      1313.5867      6813.0192      0.56142046   
      6350   323.73499     -211077.63      18.788868     -211058.84      945.59474      6815.8121      0.56119041   
      6360   310.3934      -211076.94      18.014552     -211058.93      924.28598      6819.3212      0.56090163   
      6370   318.84556     -211077.56      18.505096     -211059.05     -489.72478      6823.3637      0.56056932   
      6380   315.38259     -211077.52      18.304113     -211059.22      467.78676      6827.3555      0.56024157   
      6390   313.40883     -211077.6       18.18956      -211059.41     -1117.2761      6831.4783      0.55990346   
      6400   322.75702     -211078.39      18.732109     -211059.66      188.61027      6835.074       0.55960892   
      6410   310.50159     -211077.95      18.020831     -211059.93      484.58032      6838.7132      0.55931112   
      6420   312.63534     -211078.37      18.144669     -211060.23      511.76234      6842.7338      0.55898249   
      6430   305.9435      -211078.25      17.756289     -211060.49      108.90199      6847.2138      0.55861676   
      6440   302.87691     -211078.29      17.578311     -211060.72     -593.02718      6851.7631      0.55824586   
      6450   290.10193     -211077.74      16.836879     -211060.9       685.83865      6856.1081      0.55789208   
      6460   292.73713     -211078.03      16.989821     -211061.04      210.96616      6860.7743      0.55751264   
      6470   296.49156     -211078.37      17.20772      -211061.16     -563.69957      6865.505       0.55712848   
      6480   292.40364     -211078.24      16.970465     -211061.27     -301.92082      6869.8242      0.5567782    
      6490   306.33826     -211079.15      17.7792       -211061.37     -249.16861      6873.8001      0.55645616   
      6500   294.07594     -211078.52      17.067522     -211061.45      1049.7584      6877.7681      0.55613512   
      6510   300.26564     -211078.95      17.426759     -211061.53      225.45882      6882.3648      0.55576368   
      6520   283.38666     -211078.03      16.44714      -211061.58     -379.32527      6887.2629      0.55536843   
      6530   287.35477     -211078.29      16.67744      -211061.62     -1067.885       6891.8787      0.55499647   
      6540   286.02323     -211078.23      16.600161     -211061.63     -1500.3221      6895.6954      0.55468929   
      6550   279.68131     -211077.87      16.232089     -211061.64     -285.28197      6898.5366      0.55446084   
      6560   292.38684     -211078.6       16.96949      -211061.63     -612.79594      6900.9991      0.55426299   
      6570   291.25635     -211078.5       16.903879     -211061.6       682.35639      6903.2932      0.55407879   
      6580   286.70171     -211078.19      16.639538     -211061.55      401.37859      6905.9566      0.5538651    
      6590   282.8886      -211077.92      16.418233     -211061.5       897.28573      6909.0935      0.55361363   
      6600   279.32841     -211077.63      16.211608     -211061.42     -27.934895      6912.7851      0.55331799   
      6610   294.91481     -211078.45      17.116208     -211061.33     -992.7095       6916.4463      0.5530251    
      6620   297.13112     -211078.46      17.244838     -211061.22     -1154.3043      6919.4255      0.55278699   
      6630   295.51684     -211078.25      17.151149     -211061.1       2.995228       6921.626       0.55261125   
      6640   320.02226     -211079.56      18.573389     -211060.98      1127.4814      6923.9323      0.55242717   
      6650   296.43592     -211078.07      17.20449      -211060.86      1542.7071      6927.0782      0.55217629   
      6660   301.0218      -211078.23      17.470645     -211060.76     -314.37924      6931.3041      0.55183964   
      6670   295.95207     -211077.82      17.176409     -211060.65     -202.74755      6935.4936      0.5515063    
      6680   281.53254     -211076.88      16.339531     -211060.54     -906.41376      6939.3534      0.55119953   
      6690   303.41289     -211078.03      17.609418     -211060.42      158.78966      6942.7658      0.55092862   
      6700   289.12579     -211077.08      16.780226     -211060.3      -244.95599      6946.0576      0.55066753   
      6710   303.89213     -211077.81      17.637232     -211060.18      1137.7817      6949.4452      0.5503991    
      6720   292.50411     -211077.03      16.976297     -211060.05     -0.87521606     6953.3763      0.55008793   
      6730   311.54181     -211078.03      18.081203     -211059.94      49.21908       6957.4796      0.5497635    
      6740   302.95974     -211077.43      17.583118     -211059.84     -34.563303      6961.5115      0.5494451    
      6750   306.57658     -211077.56      17.793032     -211059.77      1932.7229      6965.7318      0.54911221   
      6760   304.11969     -211077.34      17.650439     -211059.69      620.62957      6971.2163      0.5486802    
      6770   306.55433     -211077.42      17.79174      -211059.63      953.89669      6977.3971      0.54819416   
      6780   312.69673     -211077.71      18.148232     -211059.56     -1373.4605      6984.1357      0.54766524   
      6790   310.86759     -211077.56      18.042073     -211059.52     -452.39437      6990.0965      0.54719822   
      6800   318.81489     -211078         18.503316     -211059.5      -650.58875      6995.6349      0.54676501   
      6810   309.102       -211077.43      17.939601     -211059.49      1319.9457      7000.8861      0.54635489   
      6820   319.45192     -211078.06      18.540288     -211059.52      1479.2019      7007.1263      0.54586834   
      6830   315.38074     -211077.85      18.304006     -211059.54     -264.68766      7014.5324      0.545292     
      6840   305.83309     -211077.33      17.749881     -211059.58     -1582.4219      7021.8905      0.5447206    
      6850   309.27381     -211077.56      17.949573     -211059.61     -2764.3177      7028.0603      0.5442424    
      6860   310.97663     -211077.72      18.048401     -211059.67      151.62565      7032.4259      0.54390454   
      6870   314.66751     -211078.01      18.262612     -211059.74      658.74098      7036.7139      0.5435731    
      6880   309.55417     -211077.81      17.965845     -211059.84      2268.825       7041.7451      0.54318473   
      6890   310.81514     -211077.98      18.039028     -211059.95     -267.827        7048.3111      0.54267871   
      6900   307.46652     -211077.91      17.844682     -211060.06     -1016.7397      7054.9201      0.54217034   
      6910   305.93091     -211077.95      17.755559     -211060.2      -2968.9813      7060.5647      0.54173689   
      6920   296.3006      -211077.54      17.196636     -211060.34     -554.72451      7064.2569      0.54145375   
      6930   298.20569     -211077.82      17.307204     -211060.51      37.684414      7067.2269      0.5412262    
      6940   293.09525     -211077.68      17.010605     -211060.67      1773.8475      7070.4531      0.54097925   
      6950   299.78036     -211078.24      17.398594     -211060.84     -868.90652      7074.652       0.54065816   
      6960   295.32568     -211078.13      17.140054     -211060.99     -812.8953       7078.5366      0.54036146   
      6970   290.65112     -211078         16.868753     -211061.14     -1774.9247      7081.5614      0.54013065   
      6980   287.86046     -211077.98      16.706789     -211061.28     -288.20215      7083.3763      0.53999226   
      6990   291.00108     -211078.29      16.889064     -211061.4       401.12347      7084.7624      0.53988661   
      7000   295.72085     -211078.68      17.162989     -211061.51      1263.7024      7086.5085      0.53975358   
      7010   293.25509     -211078.63      17.019882     -211061.61      590.73232      7089.1822      0.53955002   
      7020   301.60031     -211079.18      17.50422      -211061.68     -1508.1595      7092.3031      0.53931259   
      7030   289.26991     -211078.51      16.788591     -211061.72     -2017.3817      7094.4349      0.53915054   
      7040   285.43428     -211078.32      16.565979     -211061.75     -474.81162      7095.1628      0.53909522   
      7050   294.60594     -211078.85      17.098282     -211061.76      659.0885       7095.5212      0.539068     
      7060   290.47068     -211078.62      16.858281     -211061.76      534.49644      7096.3325      0.53900637   
      7070   286.53886     -211078.38      16.630087     -211061.75      628.44957      7097.6832      0.53890379   
      7080   294.9238      -211078.84      17.11673      -211061.73     -888.98882      7099.3546      0.53877691   
      7090   298.44603     -211079.03      17.321152     -211061.71     -140.52853      7100.5703      0.53868467   
      7100   293.88601     -211078.74      17.056499     -211061.69     -1151.6705      7101.4837      0.53861538   
      7110   293.60649     -211078.71      17.040276     -211061.67      349.11124      7101.802       0.53859124   
      7120   296.5575      -211078.85      17.211546     -211061.64      473.86834      7102.3009      0.53855341   
      7130   290.66838     -211078.47      16.869755     -211061.61      1182.5264      7103.3432      0.53847439   
      7140   294.99371     -211078.68      17.120787     -211061.56      333.11194      7105.3045      0.53832575   
      7150   304.51927     -211079.19      17.67363      -211061.51     -306.52162      7107.5817      0.53815328   
      7160   285.75163     -211078.04      16.584398     -211061.46     -7.6208791      7109.7455      0.53798949   
      7170   306.34317     -211079.19      17.779485     -211061.41     -281.71132      7111.779       0.53783567   
      7180   286.37837     -211077.98      16.620772     -211061.36      1131.0759      7113.7014      0.53769032   
      7190   291.35355     -211078.23      16.90952      -211061.32      1608.8493      7116.4319      0.53748402   
      7200   295.24306     -211078.4       17.135259     -211061.27      90.030289      7120.2383      0.53719668   
      7210   303.83093     -211078.84      17.633681     -211061.21      56.825456      7124.3969      0.53688311   
      7220   303.07462     -211078.74      17.589786     -211061.15     -1055.4949      7128.4366      0.53657886   
      7230   303.62397     -211078.71      17.621669     -211061.09      1859.3759      7132.2454      0.53629231   
      7240   310.8576      -211079.07      18.041493     -211061.03      432.08716      7137.1775      0.53592171   
      7250   289.33678     -211077.76      16.792472     -211060.97     -12.713358      7142.8145      0.53549877   
      7260   301.66866     -211078.41      17.508187     -211060.9      -529.9498       7148.5128      0.53507191   
      7270   297.59383     -211078.09      17.271693     -211060.82     -827.14343      7153.818       0.5346751    
      7280   302.04081     -211078.28      17.529786     -211060.75      2073.4499      7158.9102      0.53429478   
      7290   306.1701      -211078.44      17.76944      -211060.67     -1238.474       7164.9632      0.53384341   
      7300   312.89031     -211078.77      18.159467     -211060.61      1710.2819      7170.8678      0.53340384   
      7310   300.73121     -211078.02      17.453779     -211060.56     -1973.0594      7177.2664      0.5329283    
      7320   320.32337     -211079.13      18.590866     -211060.54      1391.9251      7183.0196      0.53250145   
      7330   320.01053     -211079.08      18.572709     -211060.51     -725.32341      7189.2831      0.53203753   
      7340   312.17661     -211078.63      18.118045     -211060.51      936.07446      7195.6158      0.53156929   
      7350   318.03758     -211078.98      18.458203     -211060.52     -6.3138506      7202.6905      0.53104717   
      7360   306.22868     -211078.3       17.77284      -211060.53     -573.6266       7209.9275      0.53051412   
      7370   313.80469     -211078.77      18.212535     -211060.56      1292.7859      7217.284       0.52997338   
      7380   298.88292     -211077.93      17.346509     -211060.59     -709.38832      7225.3397      0.5293825    
      7390   307.00044     -211078.45      17.817632     -211060.64      656.66309      7233.4843      0.52878643   
      7400   292.64152     -211077.66      16.984271     -211060.68     -1281.5624      7241.8213      0.52817768   
      7410   298.59466     -211078.06      17.329779     -211060.73      816.59282      7249.6956      0.527604     
      7420   293.63891     -211077.83      17.042158     -211060.79     -112.68935      7258.0304      0.52699812   
      7430   289.8239      -211077.67      16.820743     -211060.85     -1033.0957      7266.3906      0.52639179   
      7440   295.0962      -211078.04      17.126736     -211060.91     -1546.891       7274.0649      0.52583644   
      7450   297.11998     -211078.22      17.244192     -211060.98     -942.13462      7280.5306      0.52536945   
      7460   302.91218     -211078.64      17.580358     -211061.06      407.99231      7286.5008      0.52493899   
      7470   291.87424     -211078.08      16.93974      -211061.14     -188.47543      7292.6852      0.52449383   
      7480   302.45899     -211078.79      17.554056     -211061.23     -221.90552      7298.993       0.52404056   
      7490   293.21284     -211078.35      17.017429     -211061.33     -1376.7399      7305.0853      0.52360352   
      7500   297.21462     -211078.68      17.249684     -211061.43     -530.34968      7310.3407      0.5232271    
      7510   300.2122      -211078.97      17.423657     -211061.54     -426.34072      7315.2278      0.52287755   
      7520   295.92313     -211078.82      17.174729     -211061.65      905.00421      7319.9989      0.52253674   
      7530   301.2303      -211079.25      17.482745     -211061.77     -457.4501       7325.5334      0.52214196   
      7540   287.34265     -211078.56      16.676737     -211061.88     -220.06917      7331.0119      0.52175176   
      7550   298.57246     -211079.32      17.32849      -211061.99     -2026.3112      7336.2438      0.52137967   
      7560   291.72868     -211079.04      16.931292     -211062.11     -1268.4203      7340.1037      0.52110549   
      7570   282.43121     -211078.59      16.391687     -211062.2      -407.29147      7342.9161      0.52090591   
      7580   297.99814     -211079.59      17.295158     -211062.3      -400.2156       7345.3646      0.52073227   
      7590   283.93024     -211078.87      16.478688     -211062.39      920.8387       7347.6299      0.52057173   
      7600   286.83469     -211079.11      16.647256     -211062.46     -911.50473      7350.4292      0.52037348   
      7610   277.81102     -211078.65      16.123542     -211062.53      656.68567      7352.7954      0.52020601   
      7620   275.42442     -211078.57      15.985029     -211062.58     -1560.9962      7355.217       0.52003474   
      7630   275.48442     -211078.6       15.988511     -211062.61      1599.5355      7356.8613      0.51991851   
      7640   283.38175     -211079.08      16.446855     -211062.64      362.44254      7359.3273      0.51974429   
      7650   285.2894      -211079.2       16.557571     -211062.64      1774.6499      7362.5809      0.51951461   
      7660   291.88046     -211079.55      16.940101     -211062.61     -60.249678      7367.217       0.51918769   
      7670   292.63159     -211079.54      16.983695     -211062.56     -301.91915      7372.2004      0.51883673   
      7680   279.90819     -211078.72      16.245257     -211062.48     -224.14736      7377.1648      0.51848759   
      7690   294.13706     -211079.45      17.07107      -211062.38     -61.517596      7382.0601      0.51814376   
      7700   280.3806      -211078.52      16.272675     -211062.25      1271.4908      7387.1841      0.51778436   
      7710   289.23274     -211078.89      16.786434     -211062.1       559.98864      7393.3421      0.51735309   
      7720   287.64722     -211078.6       16.694413     -211061.91     -36.014967      7400.1669      0.51687596   
      7730   292.41006     -211078.67      16.970838     -211061.7      -728.64076      7407.1269      0.51639029   
      7740   288.67098     -211078.22      16.75383      -211061.47     -909.19305      7413.4542      0.51594956   
      7750   295.21347     -211078.39      17.133542     -211061.25      540.33326      7419.2785      0.51554452   
      7760   294.05214     -211078.12      17.066141     -211061.05      60.886323      7425.3068      0.51512597   
      7770   304.49255     -211078.56      17.672079     -211060.89      342.26634      7431.6234      0.51468813   
      7780   313.88342     -211078.95      18.217105     -211060.73     -1332.6991      7438.1433      0.51423698   
      7790   311.89511     -211078.72      18.101707     -211060.62     -126.22431      7444.015       0.51383136   
      7800   323.13296     -211079.27      18.753928     -211060.52     -1023.1469      7449.7677      0.51343459   
      7810   324.01446     -211079.28      18.805088     -211060.47      618.50955      7455.0257      0.51307246   
      7820   316.73687     -211078.83      18.382713     -211060.44      469.36388      7460.9504      0.51266503   
      7830   318.09819     -211078.9       18.461721     -211060.44     -84.267566      7467.3935      0.51222269   
      7840   331.57235     -211079.7       19.243731     -211060.46     -1698.2695      7473.8949      0.51177712   
      7850   319.38849     -211079.03      18.536607     -211060.5      -1466.2126      7479.1733      0.51141593   
      7860   302.8132      -211078.12      17.574613     -211060.54     -185.07816      7483.3154      0.51113286   
      7870   324.30274     -211079.45      18.821819     -211060.63      798.57876      7487.3176      0.51085964   
      7880   294.78299     -211077.82      17.108558     -211060.71      1810.7484      7492.0344      0.51053802   
      7890   308.47496     -211078.72      17.90321      -211060.81      758.04532      7498.3602      0.51010732   
      7900   303.67726     -211078.53      17.624761     -211060.91      47.028007      7505.5392      0.5096194    
      7910   306.58261     -211078.78      17.793382     -211060.98     -1705.9939      7512.901       0.50912003   
      7920   317.75401     -211079.51      18.441745     -211061.07     -531.14498      7519.254       0.50868988   
      7930   304.72826     -211078.84      17.68576      -211061.16      122.9609       7525.2132      0.50828704   
      7940   306.67039     -211079.05      17.798476     -211061.25      1778.6336      7531.6578      0.50785212   
      7950   291.44398     -211078.27      16.914769     -211061.35      609.87104      7539.5358      0.50732147   
      7960   303.73261     -211079.07      17.627974     -211061.44      195.98245      7548.2743      0.50673415   
      7970   283.84505     -211077.99      16.473744     -211061.51     -669.54102      7557.3227      0.50612744   
      7980   298.60197     -211078.91      17.330203     -211061.58     -1680.3975      7565.8955      0.50555395   
      7990   315.30237     -211079.93      18.299457     -211061.63     -380.35948      7573.4711      0.50504826   
      8000   307.5076      -211079.54      17.847066     -211061.69     -62.960853      7580.7047      0.50456634   
Loop time of 344.703 on 8 procs for 2000 steps with 450 atoms

Performance: 0.251 ns/day, 95.751 hours/ns, 5.802 timesteps/s, 2.611 katom-step/s
179.7% CPU use with 1 MPI tasks x 8 OpenMP threads

MPI task timing breakdown:
Section |  min time  |  avg time  |  max time  |%varavg| %total
---------------------------------------------------------------
Pair    | 344.46     | 344.46     | 344.46     |   0.0 | 99.93
Neigh   | 0.15713    | 0.15713    | 0.15713    |   0.0 |  0.05
Comm    | 0.033737   | 0.033737   | 0.033737   |   0.0 |  0.01
Output  | 0.009976   | 0.009976   | 0.009976   |   0.0 |  0.00
Modify  | 0.035603   | 0.035603   | 0.035603   |   0.0 |  0.01
Other   |            | 0.008095   |            |       |  0.00

Nlocal:            450 ave         450 max         450 min
Histogram: 1 0 0 0 0 0 0 0 0 0
Nghost:           4532 ave        4532 max        4532 min
Histogram: 1 0 0 0 0 0 0 0 0 0
Neighs:              0 ave           0 max           0 min
Histogram: 1 0 0 0 0 0 0 0 0 0
FullNghs:       193468 ave      193468 max      193468 min
Histogram: 1 0 0 0 0 0 0 0 0 0

Total # of neighbors = 193468
Ave neighs/atom = 429.92889
Neighbor list builds = 42
Dangerous builds = 0

write_data      data.system.after_production nocoeff
System init for write_data ...
Generated 0 of 6 mixed pair_coeff terms from geometric mixing rule
Total wall time: 0:25:55
