ITEM: TIMESTEP
6000
ITEM: NUMBER OF ATOMS
450
ITEM: BOX BOUNDS pp pp pp
-1.1559583068643118e+00 1.8080958306864289e+01
-1.1559583068643118e+00 1.8080958306864289e+01
-1.1559583068643118e+00 1.8080958306864289e+01
ITEM: ATOMS id type element x y z
1 2 C 12.3356 -0.277483 4.04501
2 2 C 11.5913 0.962817 4.27925
3 4 O 11.2178 1.65845 3.09009
4 1 H 13.3512 -0.160444 3.66873
5 1 H 12.3952 -0.868578 4.95651
6 1 H 11.9279 -0.98905 3.30586
7 1 H 12.2376 1.671 4.81537
8 1 H 10.692 0.799459 4.8768
9 1 H 10.7144 1.06601 2.5216
10 2 C 13.8069 14.3947 16.2162
11 2 C 12.613 14.4463 17.1029
12 4 O 11.6402 15.3965 16.6745
13 1 H 14.2338 15.3978 16.0883
14 1 H 14.5659 13.687 16.5053
15 1 H 13.4679 14.1339 15.2182
16 1 H 12.8587 14.797 18.0704
17 1 H 12.1106 13.4944 17.2726
18 1 H 12.0742 15.9608 16.0241
19 2 C 13.605 3.47343 0.515875
20 2 C 12.1214 3.84367 0.653732
21 4 O 11.8489 4.48998 1.89136
22 1 H 13.99 3.10395 1.4661
23 1 H 13.7307 2.76891 -0.264336
24 1 H 14.1415 4.38535 0.251476
25 1 H 11.539 2.8808 0.598196
26 1 H 11.7298 4.45774 -0.198216
27 1 H 11.7075 3.78807 2.51295
28 2 C 18.0188 7.34907 10.0076
29 2 C -0.917499 8.85494 10.0216
30 4 O -0.0681129 9.34481 8.98073
31 1 H -0.3963 6.65654 10.1303
32 1 H 17.2585 7.14826 10.7663
33 1 H 17.4945 7.0471 9.11284
34 1 H -0.529445 9.19891 10.9798
35 1 H 17.3371 9.35595 9.76824
36 1 H 0.826678 9.01952 9.15895
37 2 C 0.569313 16.9388 11.4377
38 2 C 1.88895 17.5981 11.5197
39 4 O 2.1812 -0.739124 12.2839
40 1 H 0.275085 17.236 10.4313
41 1 H 0.528692 15.8098 11.3817
42 1 H -0.088157 17.3036 12.2411
43 1 H 2.50966 17.3842 10.7101
44 1 H 16.5657 16.9466 0.811964
45 1 H 6.72134 5.85074 6.76676
46 2 C 5.53724 12.665 7.39877
47 2 C 6.69307 12.3321 6.4553
48 4 O 6.32334 11.5463 5.34505
49 1 H 5.74213 13.5576 7.9985
50 1 H 4.60944 12.8224 6.87584
51 1 H 5.35099 11.8345 8.09661
52 1 H 7.45819 11.8823 7.09334
53 1 H 7.15816 13.2051 6.01802
54 1 H 6.14029 10.6352 5.58537
55 2 C 15.7313 3.98768 12.8872
56 2 C 15.05 2.78436 13.5302
57 4 O 15.1634 2.94113 14.9565
58 1 H 16.7844 3.88628 12.9346
59 1 H 15.4602 4.22044 11.8956
60 1 H 15.6201 4.90621 13.4387
61 1 H 15.4797 1.82871 13.2685
62 1 H 13.9854 2.73901 13.3465
63 1 H 15.1728 3.89494 14.9828
64 2 C 8.78895 11.4603 9.54055
65 2 C 10.0337 11.5593 10.3392
66 4 O 10.2677 10.3215 11.0254
67 1 H 7.91643 11.5446 10.2094
68 1 H 8.73527 12.3391 8.92315
69 1 H 8.79529 10.5941 8.87945
70 1 H 9.93451 12.3464 11.085
71 1 H 10.8992 11.7343 9.7011
72 1 H 11.1887 10.3554 11.2718
73 2 C 5.84495 2.90195 6.67949
74 2 C 5.13223 4.16587 6.15864
75 4 O 4.46142 4.84405 7.22558
76 1 H 5.20698 2.38821 7.39219
77 1 H 6.03859 2.19521 5.84056
78 1 H 6.83067 3.19026 7.0473
79 1 H 4.34481 3.9359 5.40024
80 1 H 5.92292 4.76481 5.67047
81 1 H 5.12788 5.0113 7.91694
82 2 C 6.07387 10.8518 13.3235
83 2 C 5.49281 9.78176 14.2236
84 4 O 4.27404 9.39805 13.6254
85 1 H 5.3166 11.5792 12.9919
86 1 H 6.88601 11.3764 13.8737
87 1 H 6.52338 10.4329 12.4071
88 1 H 5.36819 10.0957 15.332
89 1 H 6.25131 8.97729 14.2153
90 1 H 3.91254 8.60517 14.0791
91 2 C 11.656 3.81692 14.5242
92 2 C 11.9885 3.28509 15.9565
93 4 O 12.6387 2.04407 15.916
94 1 H 11.0474 2.99856 14.1322
95 1 H 11.1847 4.78981 14.4893
96 1 H 12.5574 3.93175 13.9568
97 1 H 10.9539 2.92963 16.2908
98 1 H 12.3738 4.04755 16.6419
99 1 H 13.5968 2.21013 15.8622
100 2 C 5.74612 14.2397 11.4617
101 2 C 5.70381 15.0922 12.6968
102 4 O 7.01833 15.6128 12.8121
103 1 H 6.45966 13.4408 11.5775
104 1 H 4.72828 13.8097 11.2954
105 1 H 6.06665 14.8439 10.5845
106 1 H 5.47531 14.484 13.5905
107 1 H 4.95568 15.8718 12.6347
108 1 H 6.94041 16.2424 13.5556
109 2 C 0.688792 -0.80449 6.95265
110 2 C 2.15423 -0.9458 6.98271
111 4 O 2.58258 17.0245 6.65791
112 1 H 0.363831 -0.583147 5.94004
113 1 H 0.147725 17.6425 7.42689
114 1 H 0.300421 0.0772435 7.46575
115 1 H 2.55108 -0.795635 7.99392
116 1 H 2.58611 -0.234951 6.27839
117 1 H 2.37338 16.6882 5.74997
118 2 C 3.23534 8.46103 7.8832
119 2 C 3.46533 9.11671 9.19071
120 4 O 2.37129 8.85576 10.082
121 1 H 2.37613 8.92389 7.3827
122 1 H 4.11165 8.58555 7.2514
123 1 H 2.9451 7.38051 8.03725
124 1 H 3.4569 10.1871 9.05503
125 1 H 4.40076 8.94065 9.70249
126 1 H 2.21966 9.47632 10.8087
127 2 C 3.89565 -1.09694 15.4996
128 2 C 4.88234 16.9507 15.3855
129 4 O 6.12465 17.2466 14.7339
130 1 H 2.86421 17.7752 15.6209
131 1 H 4.16438 -0.467866 16.397
132 1 H 3.95962 -0.448419 14.5929
133 1 H 4.38745 16.2813 14.6958
134 1 H 5.03368 16.4895 16.36
135 1 H 5.93981 17.7807 13.9576
136 2 C 8.5292 13.1383 1.65645
137 2 C 7.59417 11.9303 1.64979
138 4 O 7.59998 11.1687 2.88731
139 1 H 9.59145 12.8667 1.83567
140 1 H 8.34665 13.732 0.778839
141 1 H 8.24173 13.7697 2.49021
142 1 H 7.85143 11.1901 0.901755
143 1 H 6.55953 12.2894 1.3239
144 1 H 7.15651 11.5845 3.62428
145 2 C 8.60233 16.5393 4.71546
146 2 C 9.75704 15.6806 4.36807
147 4 O 9.84546 14.6535 5.35279
148 1 H 8.29169 17.0932 3.76451
149 1 H 7.71965 15.9722 5.08011
150 1 H 8.79479 17.1992 5.55931
151 1 H 10.6086 16.3482 4.322
152 1 H 9.67355 15.2829 3.31915
153 1 H 10.7023 14.2466 5.39218
154 2 C -0.798525 -0.247843 14.5158
155 2 C -0.224074 1.14142 14.3349
156 4 O 0.00780563 1.41546 12.9399
157 1 H -0.0606346 -0.89098 14.0441
158 1 H -0.879059 -0.549204 15.5684
159 1 H 17.4683 -0.320341 14.0547
160 1 H 0.663851 1.17996 14.9481
161 1 H -0.913612 1.85786 14.7414
162 1 H 0.753698 2.03384 12.843
163 2 C 16.9766 10.3723 6.95151
164 2 C 17.0139 8.91222 6.5026
165 4 O 16.2528 8.17061 7.46204
166 1 H 17.7747 10.6422 7.61531
167 1 H 16.784 11.1818 6.23861
168 1 H 16.0828 10.475 7.56699
169 1 H 18.0503 8.52644 6.53411
170 1 H 16.5661 8.78489 5.51935
171 1 H 15.5564 8.79354 7.69507
172 2 C 13.2769 8.69365 2.65197
173 2 C 12.4879 9.82273 1.86777
174 4 O 12.9044 9.85672 0.524296
175 1 H 13.4219 7.74844 2.13213
176 1 H 14.3051 9.08773 2.91025
177 1 H 12.8992 8.50688 3.65485
178 1 H 12.5186 10.8617 2.29087
179 1 H 11.4406 9.43529 1.84604
180 1 H 12.9803 10.7816 0.228081
181 2 C 16.5495 1.5671 3.49974
182 2 C 15.8573 2.9264 3.71783
183 4 O 16.5253 3.66858 4.74016
184 1 H 17.6059 1.59303 3.14177
185 1 H 16.4923 1.24085 4.52878
186 1 H 15.9047 0.895055 2.90793
187 1 H 14.8294 2.88353 4.09699
188 1 H 15.7498 3.50573 2.76552
189 1 H 16.0172 4.42789 5.09867
190 2 C 6.11625 -0.527987 7.3974
191 2 C 7.37903 0.126153 7.94372
192 4 O 8.16406 0.708788 6.91657
193 1 H 6.33393 18.0727 6.52626
194 1 H 5.67886 18.0222 8.13004
195 1 H 5.28978 0.127458 7.10079
196 1 H 7.95826 -0.549742 8.5234
197 1 H 7.17377 0.943085 8.67373
198 1 H 8.35623 1.60884 7.20211
199 2 C 8.37675 -0.33274 12.4061
200 2 C 9.62479 -0.567698 11.4922
201 4 O 9.53055 17.6044 10.5595
202 1 H 8.60194 0.436781 13.1728
203 1 H 7.5371 -0.0424363 11.7397
204 1 H 8.21072 18.0095 13.0117
205 1 H 10.4901 -0.620331 12.1613
206 1 H 9.77098 0.339008 10.8885
207 1 H 8.59299 17.4037 10.4151
208 2 C 2.38302 10.3094 4.60629
209 2 C 1.17154 10.7963 5.42179
210 4 O 0.654078 11.9635 4.75952
211 1 H 2.19582 10.6519 3.59848
212 1 H 3.30385 10.7818 5.03335
213 1 H 2.42831 9.22129 4.66133
214 1 H 1.56045 11.0326 6.41199
215 1 H 0.339497 10.0603 5.43475
216 1 H 0.348047 12.5729 5.43741
217 2 C -0.73702 7.72284 17.7619
218 2 C 17.1489 7.10416 17.534
219 4 O 17.219 6.13609 16.4139
220 1 H 0.0534234 6.99845 17.9102
221 1 H -0.501088 8.2927 16.8331
222 1 H -0.747696 8.31422 -0.605168
223 1 H 16.4257 7.86009 17.2339
224 1 H 16.8955 6.57429 -0.77282
225 1 H 16.3301 5.87883 16.1852
226 2 C 13.7962 6.04159 7.20638
227 2 C 14.048 5.98331 5.67502
228 4 O 15.4378 6.34635 5.37735
229 1 H 13.9474 6.99407 7.6433
230 1 H 12.7455 5.72819 7.36288
231 1 H 14.4186 5.29715 7.74729
232 1 H 13.375 6.72086 5.28634
233 1 H 13.8118 4.98058 5.36913
234 1 H 15.8972 6.27833 6.21209
235 2 C 17.3317 13.8771 0.999002
236 2 C 16.5902 15.0577 0.163002
237 4 O 16.2793 16.0933 1.13189
238 1 H -1.01332 14.3567 1.50315
239 1 H 16.5462 13.4992 1.65071
240 1 H 17.6298 13.1109 0.286263
241 1 H 15.7608 14.4809 -0.209294
242 1 H 17.1065 15.333 -0.73345
243 1 H -1.02366 3.81025 5.5502
244 2 C 13.8852 15.127 4.2662
245 2 C 13.7635 14.907 2.61604
246 4 O 13.6985 13.3726 2.5498
247 1 H 14.9481 15.0263 4.46878
248 1 H 13.3895 16.1131 4.58583
249 1 H 13.2314 14.2383 4.57443
250 1 H 14.6274 15.3575 2.2338
251 1 H 12.7878 15.1169 2.22801
252 1 H 14.5548 13.2482 2.95182
253 2 C 1.60982 4.18373 16.9672
254 2 C 0.824964 4.35717 15.6303
255 4 O 0.795917 5.74378 15.2993
256 1 H 1.38922 3.18181 17.3994
257 1 H 2.72496 4.2561 16.9256
258 1 H 1.25438 4.96717 17.6336
259 1 H -0.137805 3.89039 15.7187
260 1 H 1.25853 3.83493 14.7845
261 1 H -0.016158 6.10108 15.7071
262 2 C 2.36569 16.3106 1.52135
263 2 C 1.47166 16.3349 2.73669
264 4 O 2.26267 16.0238 3.83684
265 1 H 3.01355 17.1723 1.72659
266 1 H 2.9558 15.4401 1.44215
267 1 H 1.79092 16.4155 0.5878
268 1 H 0.640652 15.6468 2.64329
269 1 H 1.03996 17.3451 2.91925
270 1 H 2.61214 15.1199 3.79183
271 2 C 14.0513 -0.524101 -0.335266
272 2 C 15.2526 -1.00541 -1.08754
273 4 O 16.3792 -0.715164 -0.326543
274 1 H 14.1012 0.54193 -0.0724144
275 1 H 13.0901 -0.700569 -0.828105
276 1 H 13.9319 -1.13705 0.571113
277 1 H 15.2936 -0.528557 17.1749
278 1 H 15.1579 17.1261 18.0383
279 1 H 16.6764 0.144299 -0.578552
280 2 C 11.2378 2.14434 8.35289
281 2 C 10.3307 3.34483 8.16372
282 4 O 9.06047 3.02691 8.64381
283 1 H 10.6543 1.25625 8.07155
284 1 H 12.1359 2.23598 7.7376
285 1 H 11.5314 2.00631 9.38075
286 1 H 10.3001 3.66812 7.12926
287 1 H 10.8125 4.14432 8.73275
288 1 H 8.46218 3.77644 8.62557
289 2 C 7.1607 7.72067 9.99376
290 2 C 7.80591 6.67915 9.08444
291 4 O 7.02589 5.51447 8.98451
292 1 H 6.98206 7.45795 11.0374
293 1 H 7.70969 8.62323 10.0847
294 1 H 6.16559 7.86967 9.62713
295 1 H 8.83164 6.49941 9.41943
296 1 H 7.8566 7.18214 8.13468
297 1 H 6.85307 5.21956 9.90625
298 2 C 13.2573 12.1138 7.26477
299 2 C 12.6209 11.6182 5.97135
300 4 O 11.4902 12.425 5.66242
301 1 H 14.2579 11.6482 7.35396
302 1 H 13.4695 13.1666 7.29437
303 1 H 12.7107 11.832 8.16083
304 1 H 12.2624 10.6035 6.22549
305 1 H 13.272 11.596 5.10657
306 1 H 11.118 11.9665 4.89162
307 2 C 12.5931 6.81139 16.9693
308 2 C 13.5943 7.61003 16.0925
309 4 O 14.4798 6.60634 15.5523
310 1 H 13.208 6.30895 17.735
311 1 H 11.8056 7.49142 17.3509
312 1 H 12.1113 6.07158 16.3439
313 1 H 14.239 8.26333 16.6942
314 1 H 13.1796 8.21467 15.2813
315 1 H 14.6538 6.70379 14.6204
316 2 C 1.46579 12.9831 9.17447
317 2 C 1.54347 14.2919 8.36874
318 4 O 2.59956 15.1237 8.7941
319 1 H 1.23192 13.2087 10.1987
320 1 H 0.649945 12.3713 8.79614
321 1 H 2.38568 12.3958 9.0124
322 1 H 0.598792 14.8677 8.55314
323 1 H 1.61263 14.0113 7.3065
324 1 H 2.70058 15.7663 8.07915
325 2 C 16.9368 1.2875 10.1762
326 2 C 17.6903 -0.00842856 10.3206
327 4 O -0.152275 0.210906 10.266
328 1 H 17.3761 1.95677 9.44601
329 1 H 15.9103 1.09569 9.87981
330 1 H 16.8988 1.722 11.1581
331 1 H 17.4832 -0.78677 9.53495
332 1 H 17.4805 -0.523966 11.2504
333 1 H 0.12379 0.549052 11.16
334 2 C 2.22262 5.52711 11.2441
335 2 C 1.32182 4.55612 11.9737
336 4 O 1.87339 3.22851 12.088
337 1 H 1.92939 6.61862 11.1367
338 1 H 3.20341 5.52249 11.7238
339 1 H 2.29292 5.17271 10.1991
340 1 H 0.404893 4.35888 11.4204
341 1 H 1.09137 4.95204 12.9779
342 1 H 2.69661 3.25297 12.5566
343 2 C 7.12351 13.1847 15.9492
344 2 C 7.22264 13.5793 17.4183
345 4 O 5.92575 13.5575 -1.13721
346 1 H 8.13766 13.2273 15.5258
347 1 H 6.64349 12.201 15.8111
348 1 H 6.58675 13.9563 15.3935
349 1 H 7.62254 14.5569 17.5699
350 1 H 7.96671 12.8449 17.9608
351 1 H 5.34474 13.0035 17.5778
352 2 C 6.1999 5.20754 13.6909
353 2 C 7.0189 4.2377 12.9433
354 4 O 6.65209 4.09999 11.6145
355 1 H 5.13422 4.95057 13.6857
356 1 H 6.6031 5.27436 14.695
357 1 H 6.3265 6.19831 13.249
358 1 H 7.02602 3.24338 13.4455
359 1 H 8.02845 4.65648 13.0042
360 1 H 5.69654 4.01155 11.5792
361 2 C 12.0802 15.7716 8.21442
362 2 C 11.0058 14.9328 8.87783
363 4 O 11.1592 14.7729 10.3536
364 1 H 13.0796 15.4543 8.51875
365 1 H 11.9587 15.6376 7.14309
366 1 H 11.9936 16.8149 8.46478
367 1 H 11.1682 13.8898 8.60153
368 1 H 9.99972 15.2164 8.6348
369 1 H 10.6801 15.4604 10.8465
370 2 C 14.2142 8.41851 10.6894
371 2 C 13.7941 9.76259 10.1619
372 4 O 13.4244 10.6237 11.239
373 1 H 14.7351 7.90874 9.86132
374 1 H 14.9472 8.52724 11.5427
375 1 H 13.3768 7.76383 10.9852
376 1 H 13.0362 9.6985 9.39734
377 1 H 14.6731 10.1957 9.69599
378 1 H 13.3017 11.4909 10.8033
379 2 C 0.981546 5.15441 2.59803
380 2 C 2.04371 5.75427 3.59135
381 4 O 1.83416 5.04981 4.79969
382 1 H 0.750133 4.14766 2.9079
383 1 H 0.105263 5.78332 2.54596
384 1 H 1.42338 5.12282 1.59286
385 1 H 1.8996 6.84947 3.63149
386 1 H 3.03103 5.52034 3.16513
387 1 H 2.24041 5.54097 5.52033
388 2 C 15.2963 14.5704 11.1428
389 2 C 14.3399 13.4597 11.4919
390 4 O 13.4281 13.2273 10.4253
391 1 H 14.6123 15.3643 10.8374
392 1 H 15.9058 14.9183 11.9725
393 1 H 15.9629 14.3562 10.3048
394 1 H 13.7188 13.6758 12.3629
395 1 H 14.8708 12.5214 11.72
396 1 H 12.6368 13.7265 10.6216
397 2 C 2.71941 12.4108 12.9534
398 2 C 1.56468 11.4068 13.2119
399 4 O 1.67881 10.1932 12.4662
400 1 H 3.11419 12.3501 11.9316
401 1 H 2.46574 13.4302 13.2125
402 1 H 3.55903 12.0968 13.5131
403 1 H 0.606351 11.8052 12.9957
404 1 H 1.57511 11.1741 14.2476
405 1 H 2.55244 9.78208 12.653
406 2 C 2.76887 8.16081 17.7504
407 2 C 2.6642 8.47985 16.2489
408 4 O 3.14271 7.53339 15.3805
409 1 H 2.49324 7.0979 17.7692
410 1 H 3.79922 8.24747 18.0572
411 1 H 2.14608 8.72574 -0.76697
412 1 H 3.21164 9.40819 16.1341
413 1 H 1.69397 8.68553 15.9098
414 1 H 2.5832 6.7447 15.516
415 2 C 10.4863 8.70179 5.07189
416 2 C 9.57367 9.8912 5.10909
417 4 O 9.92914 10.7335 4.07509
418 1 H 10.2864 7.93346 5.81027
419 1 H 10.4114 8.32748 4.0587
420 1 H 11.5008 9.01236 5.20221
421 1 H 9.61764 10.433 6.05023
422 1 H 8.54303 9.60091 4.9237
423 1 H 9.15299 10.8725 3.51903
424 2 C 4.92359 14.2191 2.7704
425 2 C 3.74778 13.3013 2.93527
426 4 O 3.05336 13.6555 4.09744
427 1 H 4.7456 15.2765 3.17138
428 1 H 5.75502 13.7137 3.31096
429 1 H 5.22965 14.3433 1.71185
430 1 H 4.14015 12.3174 2.84599
431 1 H 3.05805 13.4697 2.0818
432 1 H 2.30534 13.0646 4.19901
433 2 C 0.90498 4.27953 8.0824
434 2 C -0.377299 3.64506 7.42575
435 4 O -0.188637 3.71543 5.98679
436 1 H 0.850366 5.3584 8.20184
437 1 H 1.10704 3.87308 9.08937
438 1 H 1.74233 3.97204 7.44917
439 1 H 17.9966 4.34455 7.61713
440 1 H -0.705042 2.68355 7.65588
441 1 H 0.301011 4.5264 5.60769
442 2 C 17.5531 2.97593 0.0438094
443 2 C 17.3868 2.89115 17.7646
444 4 O 16.7836 1.57067 17.4493
445 1 H -0.642038 2.7002 0.127765
446 1 H 17.4702 4.02198 0.32737
447 1 H 16.9051 2.3959 0.658172
448 1 H -0.932672 3.02644 17.2128
449 1 H 16.6331 3.57863 17.3919
450 1 H 16.3778 1.707 16.6113
ITEM: TIMESTEP
6100
ITEM: NUMBER OF ATOMS
450
ITEM: BOX BOUNDS pp pp pp
-1.1547833244762931e+00 1.8079783324476253e+01
-1.1547833244762931e+00 1.8079783324476253e+01
-1.1547833244762931e+00 1.8079783324476253e+01
ITEM: ATOMS id type element x y z
1 2 C 12.7813 -0.100942 3.65227
2 2 C 12.0141 1.06891 4.22055
3 4 O 11.5484 1.86988 3.14779
4 1 H 13.283 0.111878 2.71484
5 1 H 13.5258 -0.538384 4.35193
6 1 H 12.1209 -0.931789 3.41835
7 1 H 12.607 1.71126 4.86497
8 1 H 11.1469 0.711259 4.79465
9 1 H 10.977 2.58702 3.44096
10 2 C 13.8043 14.6804 16.1596
11 2 C 12.604 14.6284 17.1135
12 4 O 11.438 15.2444 16.5182
13 1 H 14.1607 15.718 16.0162
14 1 H 14.6388 14.1368 16.6033
15 1 H 13.5752 14.2204 15.2079
16 1 H 12.7903 15.1198 -1.13079
17 1 H 12.3454 13.5651 17.3521
18 1 H 11.3671 16.1555 16.825
19 2 C 13.6034 3.77601 0.60243
20 2 C 12.1331 3.89474 0.885523
21 4 O 11.7472 4.69936 2.02602
22 1 H 14.1296 3.03456 1.21248
23 1 H 13.6778 3.4929 -0.471042
24 1 H 14.087 4.79191 0.663145
25 1 H 11.6318 2.95573 0.830818
26 1 H 11.6583 4.4477 0.102838
27 1 H 11.77 4.1663 2.80737
28 2 C 18.0711 7.49802 9.67937
29 2 C -0.959405 8.96827 9.88013
30 4 O -0.0201784 9.50465 8.93664
31 1 H -0.286901 6.85765 9.69489
32 1 H 17.3317 7.07807 10.367
33 1 H 17.5939 7.34306 8.68683
34 1 H -0.60677 9.23691 10.8824
35 1 H 17.3542 9.51608 9.77977
36 1 H 0.8716 9.31039 9.25504
37 2 C 0.871669 16.6896 11.8294
38 2 C 1.84117 17.8905 11.7187
39 4 O 2.37054 -0.856568 12.7013
40 1 H -0.00327996 16.9902 11.2803
41 1 H 1.13016 15.8562 11.218
42 1 H 0.637366 16.4258 12.8146
43 1 H 1.99467 -0.882714 10.643
44 1 H 16.7048 16.8795 0.737892
45 1 H 5.84849 6.3089 6.11008
46 2 C 5.66936 12.366 7.66405
47 2 C 6.67788 12.3948 6.50933
48 4 O 6.27239 11.4181 5.49854
49 1 H 5.98162 12.8441 8.5797
50 1 H 4.77938 12.9132 7.32727
51 1 H 5.36079 11.3469 7.85976
52 1 H 7.69544 12.2114 6.90227
53 1 H 6.74515 13.3723 6.0501
54 1 H 6.42608 10.5612 5.90883
55 2 C 15.8789 4.17366 12.8463
56 2 C 15.2363 3.11519 13.541
57 4 O 15.1426 3.09108 15.0133
58 1 H 16.9135 4.34042 13.1286
59 1 H 15.7819 3.82757 11.7226
60 1 H 15.3932 5.16155 12.8588
61 1 H 15.712 2.1536 13.208
62 1 H 14.2252 2.96168 13.0941
63 1 H 14.8399 3.98467 15.2559
64 2 C 8.95106 11.2537 9.27611
65 2 C 10.0253 11.6445 10.3315
66 4 O 10.4225 10.4684 11.0658
67 1 H 8.19228 10.6834 9.75823
68 1 H 8.49893 12.1652 8.81063
69 1 H 9.35746 10.7094 8.4191
70 1 H 9.61678 12.3204 11.0797
71 1 H 10.9357 12.1309 9.93018
72 1 H 11.3858 10.4485 11.1525
73 2 C 5.97537 2.86767 6.78914
74 2 C 5.08448 3.95517 6.26581
75 4 O 4.67058 4.913 7.22381
76 1 H 5.51966 2.04645 7.31217
77 1 H 6.58095 2.4333 5.99323
78 1 H 6.5657 3.39975 7.51197
79 1 H 4.15939 3.60293 5.80246
80 1 H 5.59991 4.41411 5.44261
81 1 H 5.36616 5.11884 7.862
82 2 C 6.30405 10.6768 13.1843
83 2 C 5.59792 9.56688 13.9927
84 4 O 4.22118 9.30545 13.7206
85 1 H 6.07193 11.6342 13.739
86 1 H 7.33224 10.5133 13.1207
87 1 H 5.91979 10.8235 12.1862
88 1 H 5.70414 9.86583 14.9863
89 1 H 6.20719 8.69986 13.879
90 1 H 4.03106 8.55658 14.3022
91 2 C 11.7618 3.70871 14.6628
92 2 C 11.9548 3.19732 16.1024
93 4 O 12.5078 1.8886 16.072
94 1 H 11.534 2.73112 14.1698
95 1 H 10.8597 4.33848 14.6559
96 1 H 12.618 4.09486 14.0723
97 1 H 10.9695 3.16474 16.5904
98 1 H 12.6469 3.91848 16.5477
99 1 H 13.4709 1.97257 15.7508
100 2 C 5.63673 13.9745 11.4808
101 2 C 5.66582 15.0268 12.6051
102 4 O 7.017 15.4563 12.856
103 1 H 6.11405 13.0106 11.6924
104 1 H 4.59345 13.7941 11.3249
105 1 H 6.09269 14.4055 10.6045
106 1 H 5.19231 14.7003 13.5365
107 1 H 5.05223 15.8914 12.2713
108 1 H 6.8909 16.2479 13.3837
109 2 C 0.568118 -0.753501 6.62621
110 2 C 2.0702 -0.917955 7.03302
111 4 O 2.72695 17.0228 6.59479
112 1 H 0.295078 -1.07707 5.60746
113 1 H -0.0884503 17.9166 7.2982
114 1 H 0.185652 0.251489 6.69662
115 1 H 2.18748 -0.870155 8.0944
116 1 H 2.71378 -0.134953 6.59753
117 1 H 2.44295 16.9281 5.68974
118 2 C 3.54331 8.66917 7.9344
119 2 C 3.42837 9.47382 9.23665
120 4 O 2.49923 8.84422 10.0684
121 1 H 2.56318 8.34281 7.61275
122 1 H 4.01818 9.23182 7.14496
123 1 H 4.09703 7.75318 8.07645
124 1 H 3.10976 10.5197 9.03954
125 1 H 4.37753 9.63425 9.7433
126 1 H 2.28651 9.2451 10.9309
127 2 C 3.94569 -0.93109 15.5563
128 2 C 4.77015 17.0094 15.3151
129 4 O 6.09296 17.3327 14.8178
130 1 H 3.39414 -1.00157 16.4599
131 1 H 4.66456 -0.0921401 15.5702
132 1 H 3.29448 -0.759149 14.7521
133 1 H 4.2412 16.427 14.5212
134 1 H 4.87916 16.3874 16.177
135 1 H 6.06172 -1.13348 14.2525
136 2 C 8.32958 13.1391 1.71992
137 2 C 7.3607 11.9535 1.56894
138 4 O 7.48429 11.1681 2.789
139 1 H 9.26339 12.6855 2.0172
140 1 H 8.38512 13.741 0.795806
141 1 H 8.04763 13.8445 2.49826
142 1 H 7.61916 11.291 0.74845
143 1 H 6.35162 12.2114 1.41453
144 1 H 6.86334 11.55 3.44414
145 2 C 8.52923 16.468 4.75524
146 2 C 9.64154 15.3974 4.61118
147 4 O 9.78875 14.7295 5.91448
148 1 H 8.40506 17.0905 3.90487
149 1 H 7.57015 16.0196 4.99244
150 1 H 8.75767 16.9614 5.67293
151 1 H 10.5131 15.9445 4.1997
152 1 H 9.44743 14.6851 3.84033
153 1 H 10.6324 14.2273 5.95849
154 2 C -1.00431 0.0878035 14.5717
155 2 C -0.504473 1.50166 14.124
156 4 O -0.416558 1.51145 12.7292
157 1 H -0.188645 -0.633619 14.6472
158 1 H 17.8096 0.162891 15.5732
159 1 H 17.4691 -0.248185 13.8688
160 1 H 0.468391 1.66455 14.5997
161 1 H -1.24932 2.25843 14.474
162 1 H 0.380422 2.02004 12.5127
163 2 C 17.0605 10.2171 6.90803
164 2 C 16.6685 8.83221 6.50045
165 4 O 15.8467 8.11414 7.39994
166 1 H 17.4003 10.3756 7.92652
167 1 H 17.9356 10.5345 6.35374
168 1 H 16.2957 10.9596 6.66387
169 1 H 17.5968 8.29727 6.44664
170 1 H 16.2383 8.86485 5.50239
171 1 H 15.0958 8.69695 7.56955
172 2 C 13.3508 8.78883 2.77164
173 2 C 12.5228 9.82081 2.15162
174 4 O 13.1067 10.0674 0.89376
175 1 H 12.8909 7.78847 2.74622
176 1 H 14.3552 8.7635 2.37793
177 1 H 13.5611 9.0268 3.8096
178 1 H 12.6528 10.7753 2.66959
179 1 H 11.4965 9.62701 2.25436
180 1 H 12.6361 10.8926 0.608835
181 2 C 16.548 1.65719 3.50259
182 2 C 15.8792 2.94277 3.84755
183 4 O 16.622 3.70729 4.76757
184 1 H 17.3489 1.73767 2.79653
185 1 H 16.7899 1.27111 4.48991
186 1 H 15.7274 1.05056 3.16967
187 1 H 14.9486 2.80114 4.38325
188 1 H 15.6826 3.40129 2.89468
189 1 H 16.0869 4.43303 5.15218
190 2 C 6.56586 -1.06071 7.41718
191 2 C 7.47016 0.0681094 7.87011
192 4 O 8.21034 0.752796 6.78807
193 1 H 7.13624 17.3408 6.98481
194 1 H 5.94147 17.8558 8.24491
195 1 H 5.80845 -0.713012 6.70079
196 1 H 8.27195 -0.393016 8.50842
197 1 H 6.9229 0.870306 8.38607
198 1 H 8.35989 1.62313 7.18555
199 2 C 8.35832 -0.281428 12.6523
200 2 C 9.47662 -0.442921 11.6675
201 4 O 9.23834 17.6792 10.7938
202 1 H 8.61479 0.501391 13.3353
203 1 H 7.47865 -0.0477335 12.0477
204 1 H 8.12176 18.001 13.1389
205 1 H 10.3895 -0.578597 12.2044
206 1 H 9.41812 0.464768 11.0669
207 1 H 8.48044 17.7521 10.2477
208 2 C 2.29838 10.3938 4.63168
209 2 C 0.963745 10.8011 5.32165
210 4 O 0.420788 11.8622 4.55969
211 1 H 1.98506 10.2665 3.60161
212 1 H 3.0236 11.1711 4.83866
213 1 H 2.63621 9.47236 5.10734
214 1 H 1.18362 11.0443 6.36096
215 1 H 0.296123 9.94519 5.27386
216 1 H -0.539548 11.8135 4.6437
217 2 C -0.600351 7.63366 18.003
218 2 C 17.3248 6.89762 17.8465
219 4 O 17.3479 6.11985 16.6943
220 1 H 0.23288 6.97774 17.8295
221 1 H -0.442325 8.51413 17.3986
222 1 H -0.552332 7.96397 -0.177372
223 1 H 16.4362 7.53531 17.7751
224 1 H 17.1703 6.33477 -0.46635
225 1 H 16.5149 5.72738 16.4224
226 2 C 13.5644 5.62323 7.11888
227 2 C 13.8757 5.74147 5.64165
228 4 O 15.1722 6.23497 5.41341
229 1 H 13.5707 6.592 7.60833
230 1 H 12.6072 5.14023 7.3968
231 1 H 14.4737 5.13562 7.47263
232 1 H 13.0857 6.35972 5.21966
233 1 H 13.7905 4.72123 5.17237
234 1 H 15.3599 7.01658 5.95028
235 2 C 17.3486 13.7824 1.24376
236 2 C 17.0778 15.0162 0.411657
237 4 O 16.7403 16.0534 1.24966
238 1 H -0.894871 13.9163 1.66894
239 1 H 16.6536 14.0405 2.05588
240 1 H 17.2134 12.8667 0.695536
241 1 H 16.3273 14.7005 -0.293605
242 1 H 17.9324 15.1869 -0.258312
243 1 H -1.22806 3.67694 5.58107
244 2 C 13.8872 14.9782 4.30022
245 2 C 13.7247 14.6836 2.81199
246 4 O 14.0548 13.4964 2.18836
247 1 H 14.7668 15.7119 4.29714
248 1 H 13.0369 15.2727 4.7718
249 1 H 14.2018 14.0511 4.67753
250 1 H 14.3176 15.5565 2.39595
251 1 H 12.6902 14.7841 2.4638
252 1 H 14.9005 13.323 2.57527
253 2 C 1.60863 4.46448 16.7564
254 2 C 0.832952 4.45757 15.5179
255 4 O 0.598168 5.78004 14.9409
256 1 H 1.80305 3.45758 17.018
257 1 H 2.51494 5.04614 16.8341
258 1 H 0.881652 4.8626 17.468
259 1 H -0.121176 4.01238 15.8251
260 1 H 1.21093 3.81342 14.7373
261 1 H -0.0940563 6.19248 15.4557
262 2 C 2.72846 16.4207 1.49769
263 2 C 1.73994 16.4236 2.69538
264 4 O 2.33825 16.3896 3.9697
265 1 H 3.58714 17.0612 1.70534
266 1 H 2.99846 15.4183 1.27428
267 1 H 2.24981 16.8245 0.604614
268 1 H 0.977228 15.6612 2.53478
269 1 H 1.20168 17.3468 2.77835
270 1 H 2.56465 15.4762 4.20001
271 2 C 13.733 -0.275543 -0.56759
272 2 C 15.0526 -0.864942 -1.16238
273 4 O 16.196 -0.64663 -0.272607
274 1 H 13.7251 0.800329 -0.370994
275 1 H 12.8893 -0.592446 18.0252
276 1 H 13.5112 -0.766874 0.383813
277 1 H 15.2895 -0.373717 17.1239
278 1 H 14.9749 17.2891 17.9548
279 1 H 16.6747 0.118342 -0.631964
280 2 C 10.9947 1.98479 8.27022
281 2 C 10.215 3.26617 8.04607
282 4 O 8.80101 3.11063 8.42791
283 1 H 10.5371 1.17563 7.70354
284 1 H 12.041 2.01467 7.98007
285 1 H 10.9287 1.76917 9.33403
286 1 H 10.1875 3.54076 6.9755
287 1 H 10.7042 4.12656 8.50937
288 1 H 8.26447 3.9394 8.37307
289 2 C 7.25783 7.72722 10.0709
290 2 C 7.54375 6.73049 8.95713
291 4 O 6.83851 5.50395 9.00795
292 1 H 7.34406 7.28366 11.066
293 1 H 7.94615 8.58579 10.1162
294 1 H 6.18303 8.09658 10.0807
295 1 H 8.62035 6.60024 8.91432
296 1 H 7.25201 7.30315 8.06128
297 1 H 6.73573 5.16878 9.90337
298 2 C 13.1178 11.777 7.27632
299 2 C 12.8098 11.315 5.92459
300 4 O 11.801 12.2567 5.41753
301 1 H 13.9001 11.1607 7.72463
302 1 H 13.4407 12.7841 7.31832
303 1 H 12.1966 11.6483 7.88924
304 1 H 12.4631 10.2829 5.95667
305 1 H 13.6162 11.3104 5.16505
306 1 H 11.3749 11.859 4.64925
307 2 C 12.6838 6.81628 17.0272
308 2 C 13.7423 7.40298 16.1821
309 4 O 14.6272 6.48143 15.4942
310 1 H 13.1743 6.20579 17.7465
311 1 H 12.2762 7.71267 17.4674
312 1 H 11.9199 6.27237 16.4748
313 1 H 14.4022 7.97927 16.8425
314 1 H 13.3234 8.02625 15.3854
315 1 H 15.1158 7.01321 14.8443
316 2 C 1.37992 13.0006 9.07926
317 2 C 1.56161 13.9798 7.95144
318 4 O 2.4263 15.0226 8.37616
319 1 H 0.82173 13.4816 9.89612
320 1 H 0.782735 12.1483 8.72863
321 1 H 2.31824 12.6721 9.4993
322 1 H 0.611572 14.3665 7.60363
323 1 H 1.97701 13.4404 7.09712
324 1 H 2.47538 15.6718 7.64707
325 2 C 16.7757 1.1278 10.1544
326 2 C 17.6381 -0.138946 10.1563
327 4 O -0.190916 0.214979 10.3037
328 1 H 17.0006 1.76751 9.29066
329 1 H 15.7141 0.938626 10.1438
330 1 H 17.0818 1.64844 11.0688
331 1 H 17.6265 -0.761918 9.28122
332 1 H 17.4774 -0.773369 11.0339
333 1 H -0.158458 0.588964 11.1712
334 2 C 2.56374 5.27668 11.4142
335 2 C 1.472 4.36745 11.897
336 4 O 1.84777 3.00364 12.1452
337 1 H 2.07447 6.23823 11.2988
338 1 H 3.35399 5.43447 12.1307
339 1 H 2.95332 4.9898 10.4641
340 1 H 0.617853 4.29887 11.1857
341 1 H 1.13337 4.83913 12.8207
342 1 H 2.6987 3.02095 12.6049
343 2 C 7.34801 13.5232 15.9114
344 2 C 7.40761 13.603 17.4128
345 4 O 6.12317 13.8124 18.0176
346 1 H 8.34312 13.3855 15.5166
347 1 H 6.63461 12.7441 15.5787
348 1 H 6.98769 14.5537 15.528
349 1 H 7.86316 14.5159 17.7363
350 1 H 7.86211 12.7671 17.9078
351 1 H 5.477 13.2904 17.562
352 2 C 5.77646 5.32176 13.4871
353 2 C 6.9114 4.59274 12.7257
354 4 O 6.56961 4.05901 11.4151
355 1 H 4.91612 4.728 13.7499
356 1 H 6.1769 5.82333 14.406
357 1 H 5.3703 6.0605 12.8242
358 1 H 7.33025 3.76276 13.2853
359 1 H 7.67965 5.31649 12.5698
360 1 H 5.78975 3.48097 11.5219
361 2 C 11.8562 15.9494 8.60481
362 2 C 11.0055 14.728 8.91052
363 4 O 10.9647 14.5748 10.3004
364 1 H 12.9136 15.7101 8.77289
365 1 H 11.8088 16.192 7.54352
366 1 H 11.4951 16.8157 9.20344
367 1 H 11.3774 13.8046 8.49071
368 1 H 9.99595 14.8376 8.51752
369 1 H 10.7424 15.4516 10.6771
370 2 C 14.6158 8.59355 10.9424
371 2 C 13.9932 9.70471 10.0833
372 4 O 13.1723 10.5351 10.9465
373 1 H 15.4263 8.16926 10.3731
374 1 H 14.9491 9.00712 11.8605
375 1 H 13.9052 7.81573 11.14
376 1 H 13.3602 9.23685 9.28675
377 1 H 14.7913 10.3089 9.59356
378 1 H 13.1988 11.4083 10.5589
379 2 C 0.711202 5.24855 2.53118
380 2 C 1.90867 5.58116 3.38964
381 4 O 1.6843 5.22795 4.7455
382 1 H 0.538921 4.20314 2.51759
383 1 H -0.119505 5.79853 3.01143
384 1 H 0.778057 5.65129 1.50624
385 1 H 2.02534 6.6446 3.30674
386 1 H 2.77816 5.07609 2.99796
387 1 H 2.57075 5.15864 5.12339
388 2 C 15.2621 14.6325 11.1933
389 2 C 14.1828 13.6216 11.6183
390 4 O 13.3613 13.2351 10.5337
391 1 H 15.1348 15.6196 11.6892
392 1 H 16.2334 14.2737 11.4939
393 1 H 15.3156 14.7644 10.11
394 1 H 13.4892 13.8725 12.4098
395 1 H 14.7308 12.7806 12.0308
396 1 H 12.472 13.633 10.6482
397 2 C 2.34524 12.4843 12.9185
398 2 C 1.5078 11.2672 13.3419
399 4 O 1.94819 10.0228 12.7113
400 1 H 2.10656 12.8412 11.9056
401 1 H 2.23984 13.2599 13.6983
402 1 H 3.40911 12.22 12.8353
403 1 H 0.431967 11.3558 13.137
404 1 H 1.59646 11.1987 14.466
405 1 H 2.81486 9.80531 13.0545
406 2 C 2.98652 8.08666 17.8396
407 2 C 2.47973 8.27608 16.4224
408 4 O 3.24177 7.43623 15.4983
409 1 H 2.78635 7.13026 -0.945987
410 1 H 4.11237 8.14172 17.8292
411 1 H 2.61622 8.9256 -0.84045
412 1 H 2.69775 9.32326 16.2984
413 1 H 1.41071 8.16988 16.1313
414 1 H 2.73067 6.65418 15.2894
415 2 C 10.4121 8.60838 4.65776
416 2 C 9.62371 9.87935 4.97557
417 4 O 9.89395 10.9417 4.08235
418 1 H 10.3834 7.99194 5.57514
419 1 H 10.0299 8.00941 3.84477
420 1 H 11.4433 8.87975 4.46684
421 1 H 9.8721 10.1548 6.01078
422 1 H 8.53957 9.68682 4.938
423 1 H 9.11427 11.0795 3.51934
424 2 C 4.80438 14.5861 2.85189
425 2 C 3.89017 13.3295 2.83619
426 4 O 3.01521 13.3066 3.96312
427 1 H 4.29668 15.5113 3.00717
428 1 H 5.49494 14.51 3.70399
429 1 H 5.37841 14.7725 1.9657
430 1 H 4.58345 12.4826 2.73657
431 1 H 3.34297 13.4007 1.89468
432 1 H 2.31786 12.6473 3.9392
433 2 C 0.907588 4.30667 7.79945
434 2 C -0.157589 3.40021 7.28655
435 4 O -0.289428 3.52685 5.87934
436 1 H 0.914317 5.34539 7.45702
437 1 H 0.745174 4.37313 8.85028
438 1 H 1.86742 3.87031 7.59438
439 1 H 18.1602 3.78642 7.75291
440 1 H -0.0147282 2.32389 7.57042
441 1 H 0.349816 4.15968 5.5543
442 2 C 17.6278 2.98485 0.0870589
443 2 C 17.2549 2.98099 17.8502
444 4 O 16.9134 1.66018 17.4372
445 1 H -0.602941 2.59845 0.261558
446 1 H 17.5668 4.01733 0.531068
447 1 H 16.8286 2.46386 0.639015
448 1 H -1.16667 3.32677 17.1878
449 1 H 16.3617 3.61354 17.7021
450 1 H 16.4954 1.75924 16.5929
ITEM: TIMESTEP
6200
ITEM: NUMBER OF ATOMS
450
ITEM: BOX BOUNDS pp pp pp
-1.1479576678334027e+00 1.8072957667833386e+01
-1.1479576678334027e+00 1.8072957667833386e+01
-1.1479576678334027e+00 1.8072957667833386e+01
ITEM: ATOMS id type element x y z
1 2 C 13.2072 0.135363 3.24811
2 2 C 12.5659 1.13993 4.2064
3 4 O 11.7775 2.14098 3.46512
4 1 H 13.9803 0.644362 2.66841
5 1 H 13.7023 -0.682373 3.7663
6 1 H 12.4328 -0.254564 2.57914
7 1 H 13.2477 1.67223 4.87749
8 1 H 11.903 0.584862 4.85621
9 1 H 10.8486 1.88207 3.4343
10 2 C 13.7138 15.0056 16.1476
11 2 C 12.586 14.833 17.1099
12 4 O 11.3494 15.1013 16.4269
13 1 H 13.7514 16.0336 15.8763
14 1 H 14.6493 14.8336 16.708
15 1 H 13.6292 14.3045 15.3027
16 1 H 12.6878 15.4641 17.9846
17 1 H 12.5953 13.8096 17.3818
18 1 H 10.6563 15.3042 17.0616
19 2 C 13.5757 4.08405 0.688889
20 2 C 12.0539 4.19287 0.863441
21 4 O 11.8394 4.7808 2.14436
22 1 H 14.027 3.3798 1.3491
23 1 H 13.8877 3.82553 -0.323483
24 1 H 13.9548 5.03641 0.917996
25 1 H 11.4975 3.24691 0.76839
26 1 H 11.6032 4.94505 0.195353
27 1 H 12.2753 4.19382 2.79134
28 2 C -0.850788 7.50804 9.55371
29 2 C -0.844934 8.9622 9.87584
30 4 O 0.0219917 9.62809 8.96835
31 1 H 0.159615 7.10377 9.649
32 1 H 17.77 6.89186 10.2035
33 1 H 18.0805 7.35979 8.50608
34 1 H -0.486285 9.14172 10.894
35 1 H 17.4318 9.46436 9.84425
36 1 H 0.930438 9.40641 9.2035
37 2 C 1.41734 16.3789 12.1076
38 2 C 1.76977 17.8233 12.1884
39 4 O 2.56919 -0.897511 12.9291
40 1 H 0.306385 16.1311 12.0977
41 1 H 1.82397 16.0684 11.1015
42 1 H 1.8761 15.7526 12.9226
43 1 H 1.28724 -0.82025 11.4503
44 1 H 16.9778 17.0002 0.883457
45 1 H 5.70247 6.44034 6.4934
46 2 C 5.87149 12.0797 7.81456
47 2 C 6.56678 12.3625 6.5068
48 4 O 6.23667 11.471 5.44977
49 1 H 6.12765 12.901 8.4861
50 1 H 4.77839 12.1069 7.68401
51 1 H 6.17801 11.148 8.29348
52 1 H 7.62698 12.4349 6.68397
53 1 H 6.17629 13.3349 6.20126
54 1 H 6.0771 10.599 5.8133
55 2 C 16.1421 4.37038 12.9089
56 2 C 15.3479 3.08996 13.6654
57 4 O 15.1942 3.37962 15.0415
58 1 H 16.9742 4.69003 13.5665
59 1 H 16.5417 4.20527 11.9603
60 1 H 15.4262 5.1683 12.7823
61 1 H 16.0272 2.26328 13.702
62 1 H 14.4621 2.77 13.1341
63 1 H 14.5742 4.09701 15.1933
64 2 C 9.2014 11.1862 9.07583
65 2 C 9.90088 11.5045 10.3403
66 4 O 10.2994 10.3999 11.0996
67 1 H 8.29289 10.5975 9.23921
68 1 H 9.01962 12.1076 8.51472
69 1 H 9.81892 10.5519 8.4427
70 1 H 9.30159 12.1155 11.0146
71 1 H 10.7341 12.1605 10.1791
72 1 H 11.2505 10.2507 10.9328
73 2 C 5.77041 2.8914 6.79698
74 2 C 4.92215 4.01942 6.24528
75 4 O 4.53933 4.89036 7.29529
76 1 H 5.2177 2.32407 7.57688
77 1 H 5.97302 2.18348 6.0149
78 1 H 6.66016 3.18061 7.35753
79 1 H 4.01537 3.63353 5.80044
80 1 H 5.43669 4.66456 5.49014
81 1 H 5.35663 5.17431 7.7292
82 2 C 6.26075 10.3604 12.9717
83 2 C 5.9514 9.1082 13.7893
84 4 O 4.52325 9.16644 14.0062
85 1 H 5.92711 11.2096 13.5381
86 1 H 7.34426 10.4737 12.7787
87 1 H 5.74426 10.3937 12.0059
88 1 H 6.45972 9.24081 14.8088
89 1 H 6.31551 8.14821 13.3154
90 1 H 4.29672 8.53607 14.7029
91 2 C 11.7227 3.71086 14.8323
92 2 C 11.8339 2.98788 16.2143
93 4 O 12.6809 1.84932 16.211
94 1 H 11.1633 3.27231 14.0173
95 1 H 11.1188 4.54505 15.1346
96 1 H 12.7125 3.88545 14.4518
97 1 H 10.9388 2.71794 16.72
98 1 H 12.2851 3.86992 16.7474
99 1 H 13.5179 1.92869 15.8615
100 2 C 5.61121 13.8123 11.3551
101 2 C 5.58617 14.829 12.4579
102 4 O 6.91483 15.16 12.8321
103 1 H 6.26131 12.9672 11.6601
104 1 H 4.62955 13.4458 11.1022
105 1 H 6.04318 14.325 10.5003
106 1 H 5.03412 14.5227 13.3555
107 1 H 5.12707 15.7454 12.1135
108 1 H 6.75667 15.7237 13.5887
109 2 C 0.644563 -0.83553 6.35369
110 2 C 1.98393 -0.813736 6.97544
111 4 O 2.69866 17.2942 6.59558
112 1 H 0.594488 -0.888403 5.26859
113 1 H 0.167061 17.4143 6.61131
114 1 H 0.0277636 0.00675443 6.72284
115 1 H 1.85569 -0.903965 8.06869
116 1 H 2.56178 0.0987361 6.86582
117 1 H 2.50439 17.1102 5.65483
118 2 C 3.93474 8.94673 8.14548
119 2 C 3.26949 9.7699 9.20287
120 4 O 2.62291 8.88236 10.1614
121 1 H 3.20675 8.39666 7.52814
122 1 H 4.59402 9.5345 7.46938
123 1 H 4.57642 8.23636 8.63294
124 1 H 2.59075 10.4768 8.70721
125 1 H 4.15366 10.2663 9.70264
126 1 H 2.26447 9.40052 10.8925
127 2 C 4.08181 -0.737775 15.8704
128 2 C 4.689 17.1813 15.3737
129 4 O 5.98691 17.4957 14.8281
130 1 H 3.31258 -1.10427 16.5919
131 1 H 4.78427 -0.0965003 16.3574
132 1 H 3.5808 -0.255975 15.0407
133 1 H 4.07129 16.5946 14.7254
134 1 H 4.93952 16.5028 16.2119
135 1 H 5.92744 18.0041 14.0164
136 2 C 8.07349 13.2176 1.79062
137 2 C 7.23133 12.0028 1.67607
138 4 O 7.22938 11.1163 2.73767
139 1 H 9.1178 12.934 1.74431
140 1 H 7.87459 13.8172 0.89186
141 1 H 7.86707 13.7742 2.70356
142 1 H 7.68362 11.3652 0.877805
143 1 H 6.18093 12.2269 1.41285
144 1 H 6.6634 11.4645 3.43298
145 2 C 8.6331 16.2153 4.78524
146 2 C 9.63538 15.0626 5.0198
147 4 O 9.77844 14.7516 6.33354
148 1 H 8.46326 16.3271 3.71572
149 1 H 7.68421 15.9119 5.22884
150 1 H 8.99979 17.2028 5.21717
151 1 H 10.5466 15.4359 4.53414
152 1 H 9.26161 14.1733 4.49233
153 1 H 10.2074 13.8912 6.45887
154 2 C 17.9852 0.364377 14.5254
155 2 C -0.83732 1.72381 14.0357
156 4 O -0.689268 1.79944 12.6052
157 1 H -0.715981 -0.429673 14.0018
158 1 H -1.06542 0.325171 15.5892
159 1 H 16.9216 0.191155 14.2891
160 1 H 0.140259 1.95906 14.4563
161 1 H 17.7041 2.4856 14.3711
162 1 H 0.20714 2.12663 12.4044
163 2 C 16.8248 10.2645 6.72511
164 2 C 16.4423 8.82873 6.46735
165 4 O 15.2601 8.33392 7.16773
166 1 H 16.9236 10.5054 7.79684
167 1 H 17.8308 10.4718 6.3951
168 1 H 16.1045 10.9733 6.30319
169 1 H 17.2854 8.26036 6.83107
170 1 H 16.3739 8.64607 5.36553
171 1 H 14.6691 9.08815 7.20721
172 2 C 13.6172 8.70081 2.9135
173 2 C 12.8426 10.0193 2.53155
174 4 O 13.1386 10.3214 1.09269
175 1 H 13.0013 7.81301 2.76706
176 1 H 14.51 8.58419 2.34411
177 1 H 13.9127 8.63596 3.97879
178 1 H 13.1861 10.8995 3.0541
179 1 H 11.7587 9.91069 2.84466
180 1 H 13.5266 11.2236 1.0891
181 2 C 16.6043 1.73581 3.5732
182 2 C 15.6371 2.94314 3.87771
183 4 O 16.4653 3.83797 4.69439
184 1 H 17.551 2.23743 3.58276
185 1 H 16.4855 1.04644 4.41086
186 1 H 16.3924 1.29164 2.60275
187 1 H 14.7309 2.74446 4.47253
188 1 H 15.4261 3.26151 2.86316
189 1 H 16.425 4.78043 4.45363
190 2 C 7.13805 17.8388 7.39877
191 2 C 7.65124 -0.0439119 7.92068
192 4 O 8.14854 0.540724 6.76723
193 1 H 7.88212 17.0551 7.36116
194 1 H 6.27502 17.529 7.99606
195 1 H 6.75768 18.0799 6.42954
196 1 H 8.42675 -0.234274 8.62971
197 1 H 6.91319 0.58194 8.37954
198 1 H 8.40372 1.43867 6.98509
199 2 C 8.2992 -0.258101 12.9173
200 2 C 9.32518 -0.327743 11.7034
201 4 O 9.12433 17.6648 11.0285
202 1 H 8.41632 0.756919 13.295
203 1 H 7.27723 -0.389518 12.5759
204 1 H 8.43527 -1.06653 13.634
205 1 H 10.341 -0.302238 12.1233
206 1 H 9.17766 0.541117 11.0521
207 1 H 8.23101 17.4054 10.8965
208 2 C 2.26696 10.2283 4.8486
209 2 C 0.804036 10.625 5.10978
210 4 O 0.439935 11.7425 4.28917
211 1 H 2.27243 9.7322 3.87725
212 1 H 2.91364 11.0632 4.90788
213 1 H 2.47494 9.53444 5.64963
214 1 H 0.658928 10.7977 6.18345
215 1 H 0.147628 9.77541 4.91299
216 1 H -0.385785 12.1306 4.61181
217 2 C -0.544124 7.5232 -0.789679
218 2 C 17.5406 6.59241 -1.02912
219 4 O 17.4352 6.2755 16.7819
220 1 H 0.386284 6.91596 -0.791093
221 1 H -0.440608 8.22723 17.6167
222 1 H -0.626364 8.23074 0.0848076
223 1 H 16.571 7.02488 -0.775453
224 1 H 17.5927 5.74959 -0.323756
225 1 H 16.6233 5.78669 16.5587
226 2 C 13.2477 5.09582 7.0366
227 2 C 13.5999 5.46531 5.5709
228 4 O 14.8624 5.9877 5.41826
229 1 H 13.2522 5.95884 7.74704
230 1 H 12.2678 4.67481 7.03155
231 1 H 13.9729 4.38355 7.36448
232 1 H 12.778 6.07704 5.14459
233 1 H 13.5589 4.60704 4.9403
234 1 H 14.8125 6.91158 5.7296
235 2 C 17.6182 13.7694 1.5664
236 2 C 17.3665 14.9961 0.646092
237 4 O 17.3697 16.2207 1.32679
238 1 H -0.57284 13.7422 1.79358
239 1 H 17.066 13.8242 2.48211
240 1 H 17.38 12.9229 0.893161
241 1 H 16.3498 14.9167 0.145155
242 1 H -0.980933 14.9261 -0.0754598
243 1 H -0.726357 3.89494 5.34624
244 2 C 13.9947 14.5868 4.3096
245 2 C 13.5783 14.6392 2.83608
246 4 O 14.1363 13.5515 1.93642
247 1 H 14.6788 15.3733 4.57976
248 1 H 12.921 14.9552 4.78311
249 1 H 14.4053 13.6932 4.70865
250 1 H 13.4995 15.6414 2.3299
251 1 H 12.4974 14.4345 2.69032
252 1 H 14.8523 14.082 1.61815
253 2 C 1.5023 4.65807 16.7309
254 2 C 0.928231 4.66606 15.2524
255 4 O 0.414829 5.89415 14.8426
256 1 H 1.8878 3.65203 16.9727
257 1 H 2.3116 5.363 16.8272
258 1 H 0.760244 4.9436 17.4947
259 1 H 0.0649494 3.96702 15.1944
260 1 H 1.70551 4.30143 14.5449
261 1 H -0.290579 6.16274 15.4572
262 2 C 2.68503 16.8302 1.3988
263 2 C 1.78798 16.7591 2.61657
264 4 O 2.38942 16.3714 3.91455
265 1 H 3.46919 17.5966 1.41558
266 1 H 3.14882 15.8249 1.1575
267 1 H 2.03314 17.1463 0.577
268 1 H 0.993421 16.0283 2.32178
269 1 H 1.31109 17.7007 2.85396
270 1 H 2.53164 15.4101 3.87639
271 2 C 13.5537 -0.0445426 -0.799288
272 2 C 14.7441 -0.869807 18.1065
273 4 O 15.9034 -0.65871 -0.286706
274 1 H 13.8421 0.993337 -0.791695
275 1 H 12.8006 -0.195921 17.6693
276 1 H 13.2169 -0.266687 0.193286
277 1 H 15.0316 -0.744365 17.0384
278 1 H 14.601 17.2895 -1.01682
279 1 H 16.4814 0.0870803 -0.575472
280 2 C 10.6895 1.9231 8.22886
281 2 C 10.0587 3.27003 7.96038
282 4 O 8.70884 3.14978 8.23104
283 1 H 10.5665 1.21068 7.42679
284 1 H 11.7714 2.09881 8.21555
285 1 H 10.4088 1.4942 9.20474
286 1 H 10.1474 3.52588 6.89605
287 1 H 10.499 4.05073 8.58479
288 1 H 8.2007 3.95254 8.2244
289 2 C 7.24428 7.48514 10.1894
290 2 C 7.49499 6.73774 8.8983
291 4 O 6.75509 5.51067 8.83862
292 1 H 7.8805 7.04976 10.9364
293 1 H 7.51075 8.54052 10.1115
294 1 H 6.24762 7.51023 10.5714
295 1 H 8.59333 6.56207 8.84655
296 1 H 7.16146 7.34907 8.05269
297 1 H 6.67526 5.18932 9.75628
298 2 C 13.0891 11.4486 7.3596
299 2 C 12.8672 11.3021 5.8281
300 4 O 12.0746 12.3162 5.26766
301 1 H 13.7351 10.6705 7.71555
302 1 H 13.5563 12.4448 7.61192
303 1 H 12.1695 11.4003 7.92706
304 1 H 12.4531 10.3174 5.58965
305 1 H 13.7724 11.3215 5.24531
306 1 H 11.6111 11.9718 4.48937
307 2 C 12.9157 6.68462 17.0782
308 2 C 14.0658 7.29605 16.1947
309 4 O 14.7219 6.19602 15.5503
310 1 H 13.3424 5.90052 17.719
311 1 H 12.5627 7.4733 17.7272
312 1 H 12.1406 6.30416 16.396
313 1 H 14.7682 7.91359 16.7301
314 1 H 13.6613 7.92077 15.408
315 1 H 15.2568 6.46125 14.7811
316 2 C 1.22686 12.9159 8.85332
317 2 C 1.7377 13.6184 7.60838
318 4 O 2.20639 14.8645 8.12414
319 1 H 0.491582 13.5544 9.36879
320 1 H 0.783534 11.9284 8.71378
321 1 H 1.98078 12.8791 9.6521
322 1 H 1.00483 13.7345 6.77794
323 1 H 2.58865 13.074 7.14598
324 1 H 2.39402 15.5262 7.43871
325 2 C 16.5257 0.975681 10.0415
326 2 C 17.5123 -0.13867 9.92271
327 4 O -0.373312 0.237685 10.2013
328 1 H 16.5548 1.56867 9.13378
329 1 H 15.5337 0.482716 10.1015
330 1 H 16.7019 1.63627 10.9061
331 1 H 17.5468 -0.516225 8.91845
332 1 H 17.3627 -0.969158 10.6044
333 1 H -0.368537 0.772856 11.0214
334 2 C 2.81706 5.03806 11.4908
335 2 C 1.51418 4.23528 11.6658
336 4 O 1.85433 2.93318 12.136
337 1 H 2.67072 5.92345 10.9068
338 1 H 3.12126 5.38259 12.4988
339 1 H 3.63913 4.3939 11.138
340 1 H 0.975336 4.01077 10.7772
341 1 H 0.836942 4.79163 12.2867
342 1 H 2.33945 3.00331 12.9848
343 2 C 7.52505 13.9331 15.8331
344 2 C 7.55729 13.647 17.312
345 4 O 6.36229 14.0879 17.9716
346 1 H 8.54239 13.8628 15.4937
347 1 H 6.95843 13.2408 15.2819
348 1 H 7.169 14.8928 15.7041
349 1 H 8.32185 14.2556 17.929
350 1 H 7.69214 12.5741 17.6216
351 1 H 5.71395 13.4085 17.8086
352 2 C 5.51589 5.42869 13.19
353 2 C 6.8038 4.91965 12.5356
354 4 O 6.45081 4.29418 11.2686
355 1 H 4.88726 4.52904 13.3197
356 1 H 5.62519 5.77724 14.2054
357 1 H 4.92119 6.1355 12.6041
358 1 H 7.36383 4.22008 13.1602
359 1 H 7.49715 5.72265 12.2396
360 1 H 6.16735 3.36759 11.3386
361 2 C 11.6184 16.1602 8.76179
362 2 C 10.9296 14.8389 8.98778
363 4 O 10.7336 14.5059 10.3589
364 1 H 12.5136 16.186 9.35586
365 1 H 11.9339 16.2572 7.73194
366 1 H 10.9282 16.9545 9.01159
367 1 H 11.3933 13.9876 8.4865
368 1 H 9.92312 14.9492 8.52268
369 1 H 10.0883 15.1014 10.7255
370 2 C 14.8959 8.78037 11.165
371 2 C 14.2855 9.71514 10.1082
372 4 O 13.0693 10.3322 10.5566
373 1 H 15.2415 7.83355 10.7172
374 1 H 15.6858 9.29693 11.7114
375 1 H 14.0762 8.61169 11.8866
376 1 H 14.0026 9.07457 9.27691
377 1 H 14.964 10.467 9.76023
378 1 H 13.1482 11.3195 10.5103
379 2 C 0.383496 5.3338 2.55463
380 2 C 1.77354 5.4396 3.24914
381 4 O 1.63692 5.28286 4.691
382 1 H 0.171776 4.28611 2.22577
383 1 H -0.467325 5.64874 3.17247
384 1 H 0.414479 5.91182 1.64924
385 1 H 2.21303 6.46295 3.09337
386 1 H 2.4835 4.71977 2.80751
387 1 H 2.4632 5.52168 5.11867
388 2 C 15.227 14.7381 11.2667
389 2 C 14.1443 13.7824 11.7759
390 4 O 13.2935 13.2378 10.6622
391 1 H 15.306 15.6584 11.8094
392 1 H 16.2094 14.2544 11.3157
393 1 H 15.0151 14.9594 10.2329
394 1 H 13.3973 14.1741 12.4771
395 1 H 14.6994 12.9868 12.2593
396 1 H 12.4103 13.631 10.7697
397 2 C 1.94936 12.4178 12.9076
398 2 C 1.49081 11.0792 13.3757
399 4 O 2.10083 10.0937 12.6303
400 1 H 1.69943 12.4714 11.8746
401 1 H 1.37202 13.1775 13.4267
402 1 H 3.02017 12.6067 13.1351
403 1 H 0.404772 10.935 13.2299
404 1 H 1.68836 11.0284 14.4205
405 1 H 2.94324 9.8284 13.0568
406 2 C 3.20429 8.00063 17.8494
407 2 C 2.50831 8.1628 16.4979
408 4 O 3.19096 7.29973 15.5015
409 1 H 3.33354 6.96265 -0.959287
410 1 H 4.23206 8.32354 17.8248
411 1 H 2.58703 8.64324 -0.744153
412 1 H 2.58486 9.27148 16.395
413 1 H 1.42472 7.89254 16.4453
414 1 H 2.65804 7.36393 14.6952
415 2 C 10.1361 8.44472 4.40935
416 2 C 9.58934 9.8185 4.93378
417 4 O 9.74215 10.8964 3.93155
418 1 H 9.64648 7.63585 4.9461
419 1 H 9.88332 8.27729 3.35075
420 1 H 11.2349 8.44635 4.52001
421 1 H 10.2505 10.0217 5.77996
422 1 H 8.5816 9.7577 5.34019
423 1 H 8.86702 11.0491 3.51186
424 2 C 5.20505 14.2774 3.19303
425 2 C 4.04495 13.4134 2.85395
426 4 O 2.93511 13.5907 3.73345
427 1 H 4.92143 15.2801 3.20806
428 1 H 5.61774 14.1657 4.18079
429 1 H 5.99352 14.241 2.45413
430 1 H 4.43288 12.3797 2.90847
431 1 H 3.84693 13.6544 1.82008
432 1 H 2.27448 12.8718 3.89994
433 2 C 0.98822 4.34134 7.78483
434 2 C 0.0416138 3.33872 7.17995
435 4 O -0.0481025 3.25945 5.67881
436 1 H 0.71062 5.38588 7.52692
437 1 H 0.996739 4.28243 8.88383
438 1 H 2.02354 4.24424 7.411
439 1 H -0.891088 3.41329 7.67074
440 1 H 0.511707 2.35428 7.39141
441 1 H 0.709821 3.72985 5.37912
442 2 C 17.634 2.92005 0.158274
443 2 C 17.0188 3.18327 17.9965
444 4 O 16.9495 1.94228 17.3247
445 1 H -1.11989 1.94178 0.287166
446 1 H -0.893859 3.63672 0.545293
447 1 H 16.787 2.95152 0.874294
448 1 H 17.7121 3.77282 17.3938
449 1 H 16.1093 3.76799 -1.15304
450 1 H 16.3925 2.11449 16.5179
ITEM: TIMESTEP
6300
ITEM: NUMBER OF ATOMS
450
ITEM: BOX BOUNDS pp pp pp
-1.1308433039641095e+00 1.8055843303964103e+01
-1.1308433039641095e+00 1.8055843303964103e+01
-1.1308433039641095e+00 1.8055843303964103e+01
ITEM: ATOMS id type element x y z
1 2 C 13.4828 0.544561 2.92898
2 2 C 12.8374 1.05877 4.1827
3 4 O 12.0899 2.21442 3.91605
4 1 H 14.0298 1.40806 2.48876
5 1 H 14.2259 -0.175883 3.23404
6 1 H 12.6927 0.169841 2.23945
7 1 H 13.5683 1.35298 4.95422
8 1 H 12.2576 0.226373 4.61098
9 1 H 11.5796 2.10927 3.11404
10 2 C 13.6411 15.348 16.1285
11 2 C 12.4821 15.0464 17.105
12 4 O 11.2745 14.9487 16.3879
13 1 H 13.354 16.263 15.6054
14 1 H 14.5841 15.4988 16.6246
15 1 H 13.6872 14.5414 15.3904
16 1 H 12.3495 15.8333 17.8504
17 1 H 12.7049 14.0674 17.6371
18 1 H 10.8182 14.1589 16.6598
19 2 C 13.5733 4.23573 0.634603
20 2 C 12.1492 4.66184 0.915453
21 4 O 11.8083 4.87495 2.31913
22 1 H 13.9457 3.47749 1.37222
23 1 H 13.6556 3.75829 -0.349405
24 1 H 14.2777 5.09586 0.727993
25 1 H 11.5006 3.83691 0.616142
26 1 H 11.868 5.61402 0.454168
27 1 H 12.3223 4.19522 2.81206
28 2 C -0.498106 7.3397 9.60947
29 2 C -0.701679 8.85683 9.84697
30 4 O 0.0920845 9.71305 9.05045
31 1 H 0.531278 7.09304 9.90808
32 1 H 18.0729 6.81194 10.3554
33 1 H -0.66553 6.97505 8.623
34 1 H -0.455372 9.02485 10.9083
35 1 H 17.4244 9.2043 9.62427
36 1 H 1.0082 9.55171 9.32818
37 2 C 2.00629 16.138 12.3377
38 2 C 1.90525 17.5602 12.5967
39 4 O 2.73126 -0.955817 13.1585
40 1 H 1.34057 15.5391 12.8585
41 1 H 2.00018 16.0162 11.2809
42 1 H 2.99654 15.8006 12.6472
43 1 H 1.10897 -1.09732 12.0293
44 1 H 17.5621 17.1108 0.99849
45 1 H 6.39974 6.22276 6.6962
46 2 C 6.0713 11.9047 7.83964
47 2 C 6.54361 12.3879 6.46897
48 4 O 6.03302 11.5974 5.3933
49 1 H 6.40306 12.5677 8.6447
50 1 H 5.00107 11.7867 7.86069
51 1 H 6.5234 10.9347 8.0643
52 1 H 7.6368 12.4779 6.44698
53 1 H 6.07816 13.3638 6.29371
54 1 H 6.49029 10.7554 5.39107
55 2 C 16.2605 4.36742 13.1772
56 2 C 15.3787 3.30744 13.6623
57 4 O 15.326 3.4199 15.1734
58 1 H 17.2405 4.20547 13.6485
59 1 H 16.539 4.20367 12.1246
60 1 H 15.7988 5.36159 13.299
61 1 H 15.7923 2.36859 13.4498
62 1 H 14.4012 3.50815 13.2449
63 1 H 14.9409 4.26731 15.4464
64 2 C 9.53525 11.0382 8.90186
65 2 C 9.79818 11.3354 10.3632
66 4 O 9.90281 10.133 11.1126
67 1 H 8.62927 10.3879 8.77177
68 1 H 9.37378 11.9323 8.3461
69 1 H 10.3528 10.4406 8.49292
70 1 H 9.0482 12.0039 10.8214
71 1 H 10.7366 11.889 10.4527
72 1 H 10.7951 9.86599 10.9417
73 2 C 5.28406 2.83256 6.63012
74 2 C 4.70659 4.17638 6.27435
75 4 O 4.1168 4.90581 7.38356
76 1 H 4.63968 2.4328 7.41904
77 1 H 5.23577 2.13985 5.79779
78 1 H 6.3526 2.76956 6.94134
79 1 H 3.84175 3.94479 5.62389
80 1 H 5.3749 4.84287 5.77938
81 1 H 4.85552 5.38913 7.7815
82 2 C 6.32067 10.0896 12.7196
83 2 C 6.09353 8.8327 13.4756
84 4 O 4.91822 9.06346 14.2136
85 1 H 6.13046 10.988 13.2542
86 1 H 7.41006 10.175 12.3723
87 1 H 5.68557 10.0948 11.8218
88 1 H 6.85261 8.54367 14.1669
89 1 H 5.91991 8.03724 12.8118
90 1 H 4.49006 8.22434 14.4421
91 2 C 11.5241 3.75872 15.069
92 2 C 11.8001 2.89953 16.2861
93 4 O 12.9105 2.0336 16.0497
94 1 H 11.1654 3.22499 14.1724
95 1 H 10.6901 4.4578 15.1771
96 1 H 12.5276 4.17069 14.872
97 1 H 11.0265 2.2261 16.7874
98 1 H 11.8776 3.6917 17.058
99 1 H 13.7916 2.30784 15.6563
100 2 C 5.66293 13.7058 11.1742
101 2 C 5.44241 14.5823 12.4307
102 4 O 6.7166 15.0727 12.7616
103 1 H 6.15254 12.7939 11.468
104 1 H 4.65801 13.4775 10.7445
105 1 H 6.19015 14.226 10.3636
106 1 H 5.08074 13.9444 13.2514
107 1 H 4.77965 15.4474 12.2946
108 1 H 6.63744 15.5929 13.5853
109 2 C 0.547335 -0.828993 6.14646
110 2 C 1.86797 -0.813267 6.86364
111 4 O 2.79884 17.4098 6.44515
112 1 H 0.627402 -0.367011 5.16055
113 1 H 0.261984 17.3434 5.9372
114 1 H -0.1828 -0.256554 6.72222
115 1 H 1.68115 -1.07313 7.92095
116 1 H 2.26314 0.222932 6.89298
117 1 H 2.79225 17.2805 5.48116
118 2 C 4.33064 9.03398 8.40953
119 2 C 3.40424 9.92805 9.26271
120 4 O 2.61073 9.06902 10.0207
121 1 H 3.81554 8.14913 8.04994
122 1 H 4.68081 9.51988 7.49017
123 1 H 5.2222 8.70573 8.99417
124 1 H 2.88485 10.5333 8.5349
125 1 H 4.06255 10.5169 9.8232
126 1 H 2.51391 9.46365 10.916
127 2 C 4.25235 -0.628263 16.3165
128 2 C 4.73498 17.3305 15.5647
129 4 O 5.78424 17.4744 14.5893
130 1 H 3.16157 -0.583216 16.4574
131 1 H 4.71021 -0.724938 17.3045
132 1 H 4.61613 0.307418 15.8238
133 1 H 3.92345 16.8489 15.0013
134 1 H 5.16681 16.5818 16.2661
135 1 H 5.62481 -0.872936 14.1413
136 2 C 8.12228 13.1424 1.85374
137 2 C 7.07732 12.0282 1.68746
138 4 O 7.11459 11.0165 2.76917
139 1 H 9.17136 12.8483 1.63809
140 1 H 7.92193 13.9296 1.1542
141 1 H 7.97688 13.4944 2.86478
142 1 H 7.26164 11.4283 0.831743
143 1 H 6.04708 12.4435 1.6185
144 1 H 6.70223 11.4601 3.51732
145 2 C 8.78464 15.7776 4.71786
146 2 C 9.63851 14.6592 5.04117
147 4 O 9.76477 14.5668 6.47625
148 1 H 8.61814 15.8718 3.61153
149 1 H 7.83855 15.5275 5.19211
150 1 H 9.20917 16.7415 4.95668
151 1 H 10.5896 14.8489 4.57624
152 1 H 9.21712 13.6955 4.70361
153 1 H 10.3885 13.8972 6.69731
154 2 C 17.641 0.533325 14.3006
155 2 C -0.637042 1.69051 14.0186
156 4 O -0.920975 2.15962 12.6752
157 1 H -1.24718 -0.317551 13.6863
158 1 H 17.5981 0.3076 15.3632
159 1 H 16.6186 0.749745 14.0164
160 1 H 0.420753 1.46488 14.1198
161 1 H 18.393 2.52565 14.7341
162 1 H -0.0843312 2.42386 12.2689
163 2 C 16.335 10.3568 6.56679
164 2 C 16.1572 8.8271 6.45297
165 4 O 14.758 8.58918 6.6882
166 1 H 16.3344 10.6475 7.60753
167 1 H 17.238 10.7873 6.13436
168 1 H 15.4733 10.8437 6.13991
169 1 H 16.6948 8.33563 7.27376
170 1 H 16.5092 8.42779 5.53357
171 1 H 14.3282 8.6898 5.83849
172 2 C 13.8117 8.72111 2.97745
173 2 C 13.3585 10.1949 2.79848
174 4 O 13.1891 10.6155 1.46311
175 1 H 13.7305 8.1555 2.04612
176 1 H 14.9287 8.69467 3.08781
177 1 H 13.2546 8.16747 3.75363
178 1 H 14.0387 10.8994 3.30748
179 1 H 12.3654 10.1891 3.20444
180 1 H 13.5042 11.4744 1.23456
181 2 C 16.6533 1.77964 3.63085
182 2 C 15.9289 3.14058 3.78563
183 4 O 16.6422 3.87418 4.75844
184 1 H 17.6191 2.09034 3.1437
185 1 H 16.9135 1.45685 4.62896
186 1 H 16.1335 1.02303 3.01924
187 1 H 14.8892 3.06582 4.04353
188 1 H 15.9923 3.47359 2.74901
189 1 H 16.0858 4.49946 5.268
190 2 C 7.64682 17.4197 7.62429
191 2 C 7.67472 -0.258692 7.83686
192 4 O 8.18139 0.50762 6.74506
193 1 H 8.56852 17.0527 7.15801
194 1 H 7.56571 16.9379 8.60456
195 1 H 6.83201 17.2149 6.91968
196 1 H 8.22436 -0.0635098 8.79279
197 1 H 6.65033 0.140689 8.10705
198 1 H 8.21881 1.40851 7.11199
199 2 C 8.30787 -0.157948 13.0995
200 2 C 9.00603 -0.335265 11.7733
201 4 O 9.09783 17.5072 11.224
202 1 H 8.54596 0.844567 13.5214
203 1 H 7.20989 -0.282196 13.0567
204 1 H 8.78111 -0.911148 13.7325
205 1 H 10.0261 0.0881535 11.8111
206 1 H 8.58231 0.287359 10.9669
207 1 H 8.52684 16.8196 11.636
208 2 C 2.21175 10.0275 5.08459
209 2 C 0.802013 10.5377 4.95491
210 4 O 0.766211 11.6308 4.00737
211 1 H 2.69705 10.0843 4.0957
212 1 H 2.80778 10.7387 5.71666
213 1 H 2.16865 9.00002 5.46379
214 1 H 0.386148 10.9062 5.89478
215 1 H 0.0536816 9.7812 4.61124
216 1 H -0.113466 12.0087 4.01953
217 2 C -0.528001 7.41042 -0.334209
218 2 C 17.5437 6.47402 -0.816666
219 4 O 17.565 6.441 16.9437
220 1 H 0.412692 7.25584 -0.843078
221 1 H -0.826137 8.43702 -0.505409
222 1 H -0.367544 7.35528 0.696098
223 1 H 16.5742 6.84809 -0.480127
224 1 H 17.816 5.52327 -0.378883
225 1 H 16.7483 6.15784 16.5257
226 2 C 13.0067 4.60227 6.82971
227 2 C 13.1619 5.23459 5.49579
228 4 O 14.54 5.85789 5.47056
229 1 H 13.133 5.34414 7.61768
230 1 H 12.0187 4.18881 6.8449
231 1 H 13.6667 3.73502 6.99027
232 1 H 12.3558 5.94237 5.24593
233 1 H 13.2467 4.53754 4.67
234 1 H 14.4673 6.52403 6.1527
235 2 C 18.0147 13.9848 1.86807
236 2 C 17.5238 15.0096 0.844243
237 4 O 17.9288 16.339 1.38428
238 1 H -0.0733354 14.2874 2.03605
239 1 H 17.4431 14.0651 2.79869
240 1 H 17.9783 12.9401 1.48236
241 1 H 16.4899 15.1071 0.803001
242 1 H 17.9414 14.821 -0.130234
243 1 H -0.937488 3.5403 5.39591
244 2 C 14.1693 14.3365 4.08375
245 2 C 13.2666 14.3094 2.82042
246 4 O 14.113 13.7832 1.79128
247 1 H 15.235 14.4043 3.72617
248 1 H 14.1269 14.9674 4.84519
249 1 H 14.2343 13.2205 4.45679
250 1 H 12.6126 15.0418 2.4771
251 1 H 12.6445 13.3735 2.95272
252 1 H 15.0243 13.8552 2.14301
253 2 C 1.30203 4.75589 16.627
254 2 C 1.02309 4.90418 15.1654
255 4 O 0.336651 6.1205 14.8954
256 1 H 1.68778 3.76475 16.9702
257 1 H 2.09496 5.48007 16.7996
258 1 H 0.439181 4.96133 17.2436
259 1 H 0.510925 4.11861 14.6572
260 1 H 1.99861 5.05057 14.7379
261 1 H -0.327815 6.35584 15.5562
262 2 C 2.56768 17.1945 1.44627
263 2 C 1.67715 17.1359 2.67824
264 4 O 2.46262 16.5575 3.695
265 1 H 3.36214 17.8962 1.59438
266 1 H 3.13313 16.291 1.2475
267 1 H 2.03976 17.4762 0.542784
268 1 H 0.878586 16.491 2.44729
269 1 H 1.26044 18.0903 3.03491
270 1 H 2.59606 15.6186 3.49343
271 2 C 13.5271 0.113534 -0.802041
272 2 C 14.5287 -1.00699 -1.01843
273 4 O 15.6902 -0.642674 -0.337619
274 1 H 13.9327 1.07707 -1.17793
275 1 H 12.6652 -0.0779653 17.7304
276 1 H 13.3131 0.141239 0.285394
277 1 H 14.7564 -1.13592 17.1299
278 1 H 14.275 17.1452 -0.713026
279 1 H 15.9707 0.202728 -0.623841
280 2 C 10.669 2.00687 8.21853
281 2 C 9.94923 3.29923 8.01452
282 4 O 8.51831 3.1054 8.07861
283 1 H 10.1928 1.2566 7.59239
284 1 H 11.7175 2.09544 7.95648
285 1 H 10.5817 1.671 9.2419
286 1 H 10.1316 3.75394 7.06627
287 1 H 10.1736 3.98965 8.83245
288 1 H 8.12885 3.99806 8.1315
289 2 C 7.24622 7.3476 10.1544
290 2 C 7.40268 6.84802 8.72805
291 4 O 6.99319 5.49391 8.59076
292 1 H 7.98475 6.79992 10.7878
293 1 H 7.41513 8.42375 10.2384
294 1 H 6.24328 7.20356 10.5349
295 1 H 8.46869 6.90661 8.4665
296 1 H 6.8576 7.45747 8.04718
297 1 H 6.73028 5.24168 9.50908
298 2 C 12.9447 11.3498 7.27666
299 2 C 12.8645 11.3126 5.77482
300 4 O 11.9938 12.3202 5.24666
301 1 H 13.6914 10.6388 7.57913
302 1 H 13.2781 12.3682 7.50998
303 1 H 12.0434 11.1404 7.78865
304 1 H 12.4935 10.339 5.43257
305 1 H 13.8528 11.5266 5.31988
306 1 H 11.2018 11.8805 4.90685
307 2 C 13.2461 6.57409 17.111
308 2 C 14.3733 7.07661 16.2834
309 4 O 14.9557 5.95442 15.5714
310 1 H 13.6071 5.92513 17.9344
311 1 H 12.6913 7.38894 17.5786
312 1 H 12.683 6.01442 16.3778
313 1 H 15.1636 7.61975 16.8476
314 1 H 13.9911 7.80072 15.5406
315 1 H 15.3555 6.29491 14.779
316 2 C 1.04061 12.7168 8.42758
317 2 C 1.94249 13.458 7.51098
318 4 O 2.09034 14.7852 7.96722
319 1 H 0.0897204 13.1851 8.61774
320 1 H 0.837782 11.705 8.1292
321 1 H 1.48443 12.5714 9.42008
322 1 H 1.53055 13.4564 6.50586
323 1 H 2.92311 12.9811 7.44692
324 1 H 2.20898 15.393 7.24213
325 2 C 16.1676 0.830964 9.81616
326 2 C 17.2918 -0.215919 9.74643
327 4 O -0.613544 0.37418 10.0289
328 1 H 16.5495 1.76608 9.44172
329 1 H 15.3696 0.47898 9.17355
330 1 H 15.7275 0.919935 10.7861
331 1 H 17.4007 -0.57817 8.68728
332 1 H 17.2118 -1.13367 10.3391
333 1 H -0.645745 0.942641 10.8069
334 2 C 2.66172 5.03285 11.4053
335 2 C 1.57683 3.97612 11.3066
336 4 O 1.69369 2.86762 12.248
337 1 H 2.48873 5.84058 10.6752
338 1 H 2.72887 5.44663 12.4207
339 1 H 3.61341 4.49946 11.2108
340 1 H 1.56061 3.49364 10.3531
341 1 H 0.587753 4.49937 11.4208
342 1 H 1.88182 3.28478 13.104
343 2 C 7.71326 14.3682 15.796
344 2 C 7.76893 13.8271 17.224
345 4 O 6.57772 14.175 17.9915
346 1 H 8.44248 13.7464 15.1373
347 1 H 6.70073 14.0048 15.386
348 1 H 7.85438 15.46 15.8142
349 1 H 8.57308 14.1166 17.8022
350 1 H 7.80908 12.7326 17.1922
351 1 H 5.87172 14.3241 17.3485
352 2 C 5.51617 5.50289 13.1942
353 2 C 6.68394 4.96794 12.5005
354 4 O 6.48532 4.59615 11.1547
355 1 H 4.89017 4.72333 13.6211
356 1 H 5.87778 5.96654 14.0877
357 1 H 4.9684 6.28235 12.6441
358 1 H 6.99811 4.05061 13.0025
359 1 H 7.56337 5.62838 12.5636
360 1 H 6.03112 3.75188 11.1631
361 2 C 11.3836 16.3589 8.94699
362 2 C 10.772 14.9807 9.25022
363 4 O 10.7341 14.6889 10.6887
364 1 H 12.4033 16.4647 9.34598
365 1 H 11.3054 16.5577 7.86376
366 1 H 10.7936 17.1208 9.46708
367 1 H 11.3911 14.1779 8.86323
368 1 H 9.77243 14.9484 8.834
369 1 H 10.4 15.4243 11.1803
370 2 C 15.0081 9.12512 11.4575
371 2 C 14.4194 9.57106 10.1374
372 4 O 13.2873 10.3496 10.2478
373 1 H 15.9491 8.63852 11.2331
374 1 H 15.2591 10.0138 12.0667
375 1 H 14.3163 8.47797 11.9978
376 1 H 14.2111 8.70817 9.54372
377 1 H 15.1777 10.1532 9.56628
378 1 H 13.4766 11.2602 10.4183
379 2 C 0.204337 5.38835 2.71336
380 2 C 1.63039 5.49901 3.12178
381 4 O 1.60215 5.20826 4.53144
382 1 H -0.31687 4.61485 3.29364
383 1 H -0.396599 6.26159 2.83512
384 1 H 0.161577 5.08375 1.67417
385 1 H 2.1244 6.4234 3.02126
386 1 H 2.2375 4.72748 2.65479
387 1 H 2.50381 5.13501 4.84419
388 2 C 15.0546 14.7502 11.2579
389 2 C 13.9547 13.8839 11.892
390 4 O 13.3389 13.1681 10.908
391 1 H 15.7347 15.1233 12.0232
392 1 H 15.6383 14.2245 10.4824
393 1 H 14.5314 15.6297 10.862
394 1 H 13.2257 14.496 12.3997
395 1 H 14.466 13.2197 12.6073
396 1 H 12.4182 13.4811 10.8485
397 2 C 1.58223 12.3955 12.9223
398 2 C 1.50684 10.8746 13.2814
399 4 O 2.49443 10.0302 12.631
400 1 H 1.47408 12.4155 11.8381
401 1 H 0.702131 12.9423 13.243
402 1 H 2.47144 12.8666 13.292
403 1 H 0.608554 10.4486 12.9016
404 1 H 1.55059 10.799 14.3782
405 1 H 3.27029 9.92106 13.1841
406 2 C 3.45149 7.96265 17.7682
407 2 C 2.58679 8.00428 16.4986
408 4 O 3.01144 7.18828 15.4746
409 1 H 3.55763 6.88277 17.9397
410 1 H 4.43317 8.34964 17.5795
411 1 H 3.00721 8.30042 -0.472757
412 1 H 2.51005 9.03318 16.2218
413 1 H 1.61308 7.66562 16.7079
414 1 H 2.1805 6.95435 15.0296
415 2 C 9.7796 8.43287 4.21465
416 2 C 9.43214 9.7625 4.85947
417 4 O 9.85299 10.7819 4.0429
418 1 H 9.74502 7.58742 4.8692
419 1 H 9.09295 8.32379 3.37941
420 1 H 10.7629 8.53727 3.75226
421 1 H 9.97318 9.80251 5.78757
422 1 H 8.36889 9.80591 5.07726
423 1 H 9.0959 10.9618 3.4722
424 2 C 5.22012 14.0783 3.59058
425 2 C 4.07487 13.3399 2.98387
426 4 O 2.90337 13.8626 3.53191
427 1 H 4.87419 14.8008 4.37495
428 1 H 5.98222 13.5293 4.18204
429 1 H 5.85367 14.644 2.84209
430 1 H 4.14246 12.3002 3.17004
431 1 H 4.15873 13.5016 1.87311
432 1 H 2.08261 13.4016 3.48376
433 2 C 0.965588 4.37224 7.56151
434 2 C 0.204854 3.11701 7.03437
435 4 O -0.0210497 3.28083 5.56781
436 1 H 0.440737 5.27047 7.34639
437 1 H 1.48599 4.38956 8.52496
438 1 H 1.82101 4.48244 6.88382
439 1 H -0.776665 2.86693 7.5579
440 1 H 0.822586 2.28328 7.15233
441 1 H 0.645908 3.86325 5.21907
442 2 C 17.5165 2.78919 0.155819
443 2 C 17.023 3.30011 -1.1329
444 4 O 16.5408 2.19063 17.277
445 1 H -0.988397 1.94198 -0.000860436
446 1 H -1.07523 3.5177 0.690362
447 1 H 16.791 2.34064 0.816374
448 1 H 17.8107 3.81649 17.5052
449 1 H 16.2876 4.10576 -0.940419
450 1 H 16.1537 2.65433 16.541
ITEM: TIMESTEP
6400
ITEM: NUMBER OF ATOMS
450
ITEM: BOX BOUNDS pp pp pp
-1.1330834334689524e+00 1.8058083433468930e+01
-1.1330834334689524e+00 1.8058083433468930e+01
-1.1330834334689524e+00 1.8058083433468930e+01
ITEM: ATOMS id type element x y z
1 2 C 13.5602 0.74349 2.67915
2 2 C 13.0777 1.05615 4.16564
3 4 O 12.3568 2.25174 4.35808
4 1 H 14.0306 1.64934 2.32254
5 1 H 14.2769 -0.0678052 2.83591
6 1 H 12.7394 0.510657 2.03604
7 1 H 13.9489 1.2332 4.76046
8 1 H 12.6039 0.14558 4.5373
9 1 H 11.5816 2.28785 3.80482
10 2 C 13.4946 15.6535 16.1111
11 2 C 12.3932 15.2411 17.0931
12 4 O 11.2414 14.7431 16.368
13 1 H 13.1326 16.4557 15.4396
14 1 H 14.3703 15.9007 16.6974
15 1 H 13.758 14.8233 15.4672
16 1 H 12.0256 16.1318 17.6336
17 1 H 12.7741 14.6083 17.8641
18 1 H 11.2902 13.7929 16.2891
19 2 C 13.5634 4.24018 0.736505
20 2 C 12.2516 4.94081 1.01424
21 4 O 11.8867 5.01352 2.34907
22 1 H 13.353 3.19996 0.962514
23 1 H 13.7737 4.19209 -0.316556
24 1 H 14.4405 4.56798 1.29937
25 1 H 11.4795 4.37778 0.510143
26 1 H 12.166 5.9403 0.605498
27 1 H 12.4951 5.59982 2.80483
28 2 C -0.182206 7.27583 9.75082
29 2 C -0.747733 8.67802 9.84038
30 4 O 0.0149043 9.59794 9.04209
31 1 H 0.839514 7.30293 10.1137
32 1 H -0.817649 6.59342 10.3469
33 1 H -0.178196 6.9755 8.69353
34 1 H -0.777239 9.00167 10.8862
35 1 H 17.4572 8.67604 9.46338
36 1 H 0.920474 9.48034 9.36475
37 2 C 2.34995 15.9743 12.6519
38 2 C 1.99865 17.4507 12.9328
39 4 O 2.87584 -1.00922 13.3651
40 1 H 1.57988 15.2352 12.9742
41 1 H 2.50956 15.8882 11.5532
42 1 H 3.32203 15.6408 13.0225
43 1 H 0.930231 17.9028 12.6605
44 1 H 17.5944 17.1447 0.863832
45 1 H 6.34429 6.24645 6.52033
46 2 C 6.33723 11.9435 7.81779
47 2 C 6.58868 12.4516 6.41493
48 4 O 5.95646 11.5772 5.41732
49 1 H 7.09675 12.3469 8.4917
50 1 H 5.3441 12.167 8.17851
51 1 H 6.46419 10.8575 7.88207
52 1 H 7.66686 12.4559 6.19271
53 1 H 6.28829 13.4878 6.33012
54 1 H 5.48396 10.9416 5.95916
55 2 C 16.4146 4.52066 13.2119
56 2 C 15.3441 3.53773 13.7329
57 4 O 15.3742 3.30803 15.0854
58 1 H 17.3668 4.41182 13.6663
59 1 H 16.6681 4.08147 12.1805
60 1 H 16.074 5.56015 13.2077
61 1 H 15.3936 2.58232 13.1988
62 1 H 14.382 4.05538 13.451
63 1 H 15.3687 4.18003 15.5172
64 2 C 9.70939 10.8123 8.81359
65 2 C 9.64934 11.1285 10.3506
66 4 O 9.65557 9.90195 11.12
67 1 H 8.80289 10.4293 8.39331
68 1 H 9.92718 11.7274 8.21675
69 1 H 10.5209 10.0968 8.70843
70 1 H 8.70064 11.6018 10.5769
71 1 H 10.5039 11.7794 10.5917
72 1 H 10.5339 9.53687 11.0632
73 2 C 4.74941 2.78429 6.55189
74 2 C 4.23146 4.17107 6.25815
75 4 O 4.22161 5.01381 7.38097
76 1 H 3.99008 2.04983 6.70286
77 1 H 5.52512 2.41595 5.86646
78 1 H 5.40377 2.87428 7.39378
79 1 H 3.2066 4.13122 5.92452
80 1 H 4.78918 4.64893 5.42194
81 1 H 5.07396 4.98079 7.81763
82 2 C 6.47308 10.0098 12.3647
83 2 C 6.14693 8.82657 13.268
84 4 O 5.02931 9.01876 14.2355
85 1 H 7.22377 10.744 12.7582
86 1 H 6.90541 9.68204 11.4776
87 1 H 5.56443 10.5176 12.1201
88 1 H 6.98548 8.4394 13.8647
89 1 H 5.80191 7.9796 12.6433
90 1 H 4.56812 8.1633 14.3768
91 2 C 11.3135 3.80542 15.2326
92 2 C 11.8559 2.88128 16.3027
93 4 O 12.9993 2.23488 15.7792
94 1 H 11.3335 3.19796 14.3064
95 1 H 10.2127 3.83784 15.3483
96 1 H 11.6178 4.83484 15.0111
97 1 H 11.1949 2.11511 16.7165
98 1 H 12.1251 3.49387 17.1753
99 1 H 13.7657 2.81629 15.6166
100 2 C 5.77819 13.5934 11.0282
101 2 C 5.47112 14.4236 12.229
102 4 O 6.60716 15.212 12.7717
103 1 H 6.60561 12.9514 11.2443
104 1 H 4.89113 13.0031 10.8402
105 1 H 5.9611 14.161 10.1261
106 1 H 5.15396 13.7287 13.0076
107 1 H 4.65002 15.1279 12.0599
108 1 H 6.21271 15.67 13.5169
109 2 C 0.428523 -0.833775 5.96092
110 2 C 1.77459 -0.909472 6.88749
111 4 O 2.82327 17.3777 6.35669
112 1 H 0.752993 -0.517308 4.95001
113 1 H -0.123333 17.4091 5.93326
114 1 H -0.184635 -0.028322 6.38717
115 1 H 1.52721 17.946 7.87192
116 1 H 2.09756 0.125092 6.8977
117 1 H 2.87058 17.5488 5.39469
118 2 C 4.6089 8.91969 8.59306
119 2 C 3.65724 9.95743 9.22227
120 4 O 2.6953 9.31626 10.0571
121 1 H 4.12725 7.95237 8.63888
122 1 H 4.839 9.03624 7.56229
123 1 H 5.53534 8.75682 9.13674
124 1 H 3.19567 10.4426 8.36044
125 1 H 4.276 10.7757 9.66422
126 1 H 2.7895 9.67774 10.9472
127 2 C 4.64072 -0.650501 16.6458
128 2 C 4.74938 17.2419 15.7789
129 4 O 5.35546 17.4499 14.4805
130 1 H 3.67698 -0.366945 16.9332
131 1 H 5.24556 -0.794138 17.5441
132 1 H 5.07823 0.130698 16.0703
133 1 H 3.76585 16.8401 15.5319
134 1 H 5.34908 16.4958 16.217
135 1 H 4.64465 17.825 13.9425
136 2 C 8.25623 12.9829 1.79118
137 2 C 7.1144 11.9566 1.67381
138 4 O 7.23137 11.0573 2.79793
139 1 H 9.20643 12.4927 1.96462
140 1 H 8.31415 13.6394 0.911882
141 1 H 8.07586 13.6542 2.64439
142 1 H 7.05899 11.3866 0.753303
143 1 H 6.17706 12.4314 1.77505
144 1 H 6.84403 11.5172 3.57398
145 2 C 8.79151 15.4015 4.52693
146 2 C 9.69336 14.1869 4.90593
147 4 O 9.88027 14.171 6.36834
148 1 H 8.807 15.5832 3.47474
149 1 H 7.75989 15.2332 4.81433
150 1 H 9.13019 16.3075 4.96418
151 1 H 10.6518 14.2502 4.3159
152 1 H 9.30543 13.2224 4.64194
153 1 H 10.6717 13.6991 6.65375
154 2 C 17.3491 0.412454 14.1781
155 2 C -0.718367 1.43476 13.9379
156 4 O -0.968145 2.12211 12.7587
157 1 H 17.368 -0.281538 13.3374
158 1 H 17.5388 -0.147692 15.1108
159 1 H 16.3724 0.840015 14.3336
160 1 H 0.260137 0.939431 13.9235
161 1 H -0.672096 2.1248 14.779
162 1 H -0.0907941 2.46013 12.4659
163 2 C 16.078 10.3719 6.44071
164 2 C 15.739 8.91508 6.37751
165 4 O 14.3946 8.55019 6.08788
166 1 H 15.287 10.9338 6.92525
167 1 H 17.0298 10.4528 6.99268
168 1 H 16.3265 10.8133 5.46155
169 1 H 15.9525 8.42148 7.332
170 1 H 16.4345 8.47559 5.62249
171 1 H 13.9158 9.28571 5.694
172 2 C 13.9765 8.91427 2.89639
173 2 C 13.7281 10.3618 2.94631
174 4 O 13.4612 10.7978 1.65039
175 1 H 13.9334 8.56626 1.87434
176 1 H 14.9867 8.68049 3.20654
177 1 H 13.2609 8.39253 3.49611
178 1 H 14.5465 10.903 3.4719
179 1 H 12.8717 10.4403 3.56817
180 1 H 13.625 11.72 1.46744
181 2 C 16.9453 1.92478 3.66637
182 2 C 16.2892 3.26345 3.72255
183 4 O 16.6202 4.0969 4.78232
184 1 H 18.041 1.87512 3.6521
185 1 H 16.71 1.32814 4.53198
186 1 H 16.5511 1.47078 2.75714
187 1 H 15.206 3.04288 3.65586
188 1 H 16.4735 3.65791 2.7236
189 1 H 15.8811 4.32528 5.3647
190 2 C 8.2243 17.2995 7.84562
191 2 C 7.76112 -0.444051 7.97121
192 4 O 7.89495 0.271821 6.69799
193 1 H 9.24116 17.2209 7.50136
194 1 H 8.125 16.8722 8.83127
195 1 H 7.67581 16.7717 7.06291
196 1 H 8.29283 0.0782261 8.75486
197 1 H 6.72715 -0.417046 8.19401
198 1 H 7.95406 1.20225 6.94652
199 2 C 8.41312 -0.168381 13.1655
200 2 C 8.84364 -0.491258 11.7603
201 4 O 8.91448 17.2874 11.6224
202 1 H 8.33106 0.887187 13.283
203 1 H 7.46027 -0.590078 13.415
204 1 H 9.20086 -0.451184 13.8351
205 1 H 9.83711 -0.140443 11.4954
206 1 H 8.20338 -0.129054 10.9342
207 1 H 8.03954 16.846 11.6498
208 2 C 2.14848 9.98347 5.26303
209 2 C 0.836704 10.4991 4.69186
210 4 O 1.18539 11.6212 3.88939
211 1 H 2.8332 9.53933 4.56681
212 1 H 2.68773 10.8411 5.65947
213 1 H 1.90753 9.27699 6.04763
214 1 H 0.162348 10.867 5.46056
215 1 H 0.360242 9.81011 4.04041
216 1 H 0.603354 11.8277 3.1695
217 2 C -0.580292 7.50583 -0.018656
218 2 C 17.6253 6.53353 -0.607813
219 4 O 17.6692 6.61055 17.1866
220 1 H 0.4765 7.25322 -0.145822
221 1 H -0.743949 8.49161 -0.533432
222 1 H -0.736782 7.55986 1.05212
223 1 H 16.6359 6.79961 -0.225453
224 1 H 18.0041 5.60311 -0.222315
225 1 H 16.8989 6.13011 16.8588
226 2 C 12.8588 4.11898 6.63841
227 2 C 13.0613 5.14363 5.51094
228 4 O 14.341 5.74889 5.3902
229 1 H 12.6243 4.67222 7.52272
230 1 H 12.178 3.28645 6.42006
231 1 H 13.8225 3.62667 6.87338
232 1 H 12.3536 5.94952 5.58451
233 1 H 13.0206 4.6869 4.4998
234 1 H 14.2467 6.65946 5.71666
235 2 C -0.749704 14.2635 2.10363
236 2 C 17.7946 15.1465 1.11796
237 4 O -1.02809 16.4834 1.26917
238 1 H 0.306206 14.2183 2.0017
239 1 H 18.1256 14.6548 3.06059
240 1 H 17.9731 13.3276 2.08271
241 1 H 16.6762 15.1662 1.13149
242 1 H 17.9384 14.7941 0.0469511
243 1 H -0.917183 3.40612 5.59097
244 2 C 14.3587 14.2404 3.92054
245 2 C 13.3679 13.995 2.84263
246 4 O 13.9159 13.6999 1.45639
247 1 H 14.8212 15.2259 4.22562
248 1 H 13.8487 13.8214 4.94231
249 1 H 15.0919 13.4934 3.87247
250 1 H 12.7732 14.9745 2.68619
251 1 H 12.8045 13.1618 3.1308
252 1 H 14.8215 13.8383 1.8023
253 2 C 1.14655 4.68145 16.5913
254 2 C 0.898917 4.99843 15.1455
255 4 O 0.433322 6.40008 14.9208
256 1 H 1.66642 3.76136 16.5738
257 1 H 1.82354 5.38969 17.0785
258 1 H 0.275361 4.48147 17.1931
259 1 H 0.224948 4.29155 14.6073
260 1 H 1.86311 4.96896 14.5996
261 1 H -0.181446 6.59716 15.6401
262 2 C 2.42548 17.619 1.32413
263 2 C 1.68607 17.4024 2.61998
264 4 O 2.5187 16.994 3.67623
265 1 H 3.45105 18.0126 1.55224
266 1 H 2.66191 16.7012 0.820658
267 1 H 1.9376 -0.946528 0.563873
268 1 H 0.809035 16.7579 2.44497
269 1 H 1.28254 -0.821441 2.94392
270 1 H 2.67051 16.0426 3.81189
271 2 C 13.3973 0.128362 -0.820852
272 2 C 14.4468 -1.00821 -0.824427
273 4 O 15.8323 -0.630838 -0.418914
274 1 H 13.6751 0.87535 17.6413
275 1 H 12.4747 -0.34237 18.0407
276 1 H 13.2906 0.51459 0.193912
277 1 H 14.5726 17.8247 17.3309
278 1 H 14.2375 17.3404 -0.166787
279 1 H 16.039 0.211302 -0.872269
280 2 C 10.6201 2.12557 8.32405
281 2 C 9.70656 3.3471 7.98293
282 4 O 8.32519 2.90895 8.06927
283 1 H 10.587 1.35037 7.54569
284 1 H 11.619 2.47593 8.568
285 1 H 10.2275 1.6683 9.23319
286 1 H 9.91611 3.86648 6.9827
287 1 H 9.84764 4.17856 8.69357
288 1 H 7.80307 3.72746 7.92119
289 2 C 7.43671 7.4452 9.95374
290 2 C 7.36109 6.8928 8.51907
291 4 O 7.15327 5.49544 8.43561
292 1 H 8.15893 6.93291 10.6182
293 1 H 7.72753 8.49614 9.92006
294 1 H 6.39333 7.30092 10.3262
295 1 H 8.2801 7.16215 7.96719
296 1 H 6.55295 7.40094 8.00313
297 1 H 6.87781 5.18186 9.29508
298 2 C 12.8477 11.5785 7.28733
299 2 C 12.6604 11.329 5.83385
300 4 O 11.6705 12.3241 5.42202
301 1 H 13.4187 10.7695 7.78795
302 1 H 13.3968 12.4911 7.34695
303 1 H 11.8741 11.6142 7.75236
304 1 H 12.2989 10.3304 5.62878
305 1 H 13.6154 11.4946 5.29022
306 1 H 10.8812 11.9256 5.01006
307 2 C 13.512 6.5073 17.2409
308 2 C 14.5575 7.10672 16.3125
309 4 O 15.4136 6.15619 15.7108
310 1 H 13.9095 5.74261 17.8909
311 1 H 13.1861 7.35146 17.861
312 1 H 12.6555 6.11564 16.7282
313 1 H 15.1506 7.74566 16.9451
314 1 H 14.0643 7.68082 15.5485
315 1 H 16.1207 6.59558 15.2505
316 2 C 0.951389 12.6296 7.8937
317 2 C 2.06416 13.4978 7.33685
318 4 O 2.01032 14.798 7.93918
319 1 H -0.060247 12.9089 7.57756
320 1 H 1.03846 11.5673 7.6369
321 1 H 1.03603 12.5153 8.96762
322 1 H 1.88921 13.5797 6.26229
323 1 H 3.05148 13.0242 7.52655
324 1 H 2.34344 15.4519 7.29372
325 2 C 15.8761 0.650272 9.58714
326 2 C 17.1566 -0.172815 9.47637
327 4 O -0.937588 0.513359 10.1224
328 1 H 15.9556 1.55056 8.92092
329 1 H 14.9548 0.106655 9.381
330 1 H 15.8067 0.941873 10.6458
331 1 H 17.4497 -0.352309 8.45878
332 1 H 17.0568 18.016 9.94035
333 1 H -1.18289 0.925712 10.9405
334 2 C 2.38018 5.05414 11.1271
335 2 C 1.61491 3.75734 11.0831
336 4 O 1.64762 3.0211 12.3007
337 1 H 2.30024 5.46032 10.1182
338 1 H 2.01237 5.73549 11.8672
339 1 H 3.39904 4.8545 11.2908
340 1 H 2.01707 3.0965 10.291
341 1 H 0.606295 4.01211 10.8326
342 1 H 1.8382 3.68111 12.9462
343 2 C 7.89309 14.8118 15.8644
344 2 C 7.84582 13.9492 17.1176
345 4 O 6.85261 14.3409 18.0424
346 1 H 8.7337 14.5958 15.3328
347 1 H 7.0352 14.5643 15.3116
348 1 H 7.84103 15.8661 16.1324
349 1 H 8.83637 13.9611 17.6912
350 1 H 7.70771 12.8654 16.8374
351 1 H 5.99003 14.3961 17.5929
352 2 C 5.45237 5.32631 13.3889
353 2 C 6.68727 4.94442 12.5547
354 4 O 6.36599 4.59981 11.1774
355 1 H 4.73064 4.51235 13.4324
356 1 H 5.66389 5.67457 14.428
357 1 H 4.98067 6.17612 12.9033
358 1 H 7.22756 4.0799 12.9102
359 1 H 7.36701 5.76722 12.502
360 1 H 5.68142 3.94875 11.1931
361 2 C 11.1691 16.4833 9.17766
362 2 C 10.6045 15.1536 9.68225
363 4 O 10.9922 14.9851 11.0256
364 1 H 12.2602 16.5039 9.24335
365 1 H 10.8943 16.4909 8.13018
366 1 H 10.8056 17.3813 9.67468
367 1 H 11.0952 14.3418 9.13461
368 1 H 9.54074 15.0763 9.53008
369 1 H 10.5934 15.6889 11.5725
370 2 C 15.028 9.52183 11.745
371 2 C 14.5751 9.58748 10.25
372 4 O 13.2675 10.2321 10.1112
373 1 H 16.0916 9.32814 11.8116
374 1 H 14.8845 10.5098 12.1603
375 1 H 14.4907 8.78662 12.3
376 1 H 14.5187 8.56565 9.8112
377 1 H 15.2655 10.1444 9.62119
378 1 H 13.3086 11.1672 10.431
379 2 C -0.026337 5.41882 2.70248
380 2 C 1.44785 5.42216 2.96406
381 4 O 1.66754 5.27407 4.3705
382 1 H -0.480471 4.52443 3.07228
383 1 H -0.500246 6.25532 3.24491
384 1 H -0.302721 5.58147 1.64563
385 1 H 2.06545 6.2746 2.62371
386 1 H 1.90487 4.51689 2.55984
387 1 H 2.3266 5.90545 4.64739
388 2 C 14.9085 14.8552 11.3037
389 2 C 13.9284 13.9269 12.0143
390 4 O 13.1126 13.1109 11.1428
391 1 H 15.8638 14.9768 11.8399
392 1 H 15.0585 14.4631 10.3162
393 1 H 14.4742 15.8535 11.2138
394 1 H 13.285 14.5015 12.6899
395 1 H 14.5068 13.2649 12.6453
396 1 H 12.3751 13.6844 10.9598
397 2 C 1.38528 12.0592 12.8915
398 2 C 1.60922 10.5824 13.1356
399 4 O 2.93451 10.2157 12.737
400 1 H 1.35874 12.2582 11.7845
401 1 H 0.404959 12.3715 13.312
402 1 H 2.22715 12.6597 13.2489
403 1 H 0.961772 9.94009 12.5039
404 1 H 1.37697 10.3296 14.1963
405 1 H 3.45416 9.65879 13.3618
406 2 C 3.72748 7.82929 17.5185
407 2 C 2.62172 8.07575 16.5419
408 4 O 3.02353 7.24579 15.4348
409 1 H 3.40103 6.94409 18.0045
410 1 H 4.73027 7.85235 17.0332
411 1 H 3.76309 8.50899 -0.829522
412 1 H 2.57741 9.17811 16.2882
413 1 H 1.62229 7.74026 16.953
414 1 H 2.22231 6.88827 15.05
415 2 C 9.41053 8.36211 4.0133
416 2 C 9.44021 9.62756 4.84892
417 4 O 9.69801 10.8121 4.12895
418 1 H 9.15778 7.4983 4.68483
419 1 H 8.66817 8.52416 3.23274
420 1 H 10.35 8.08999 3.55364
421 1 H 10.188 9.50717 5.64649
422 1 H 8.43464 9.71273 5.31064
423 1 H 8.93697 10.8381 3.51643
424 2 C 5.02591 14.2297 3.86998
425 2 C 4.02106 13.3134 3.16196
426 4 O 2.68261 13.8049 3.34849
427 1 H 5.09717 13.9913 4.94143
428 1 H 5.99669 14.2306 3.42431
429 1 H 4.72783 15.2747 3.85444
430 1 H 4.07913 12.3116 3.66564
431 1 H 4.28584 13.1936 2.14858
432 1 H 2.04745 13.2093 3.75992
433 2 C 0.767684 4.36412 7.41162
434 2 C 0.438691 2.96259 6.93849
435 4 O -0.00825026 3.08468 5.51857
436 1 H 0.106338 5.17957 7.10725
437 1 H 0.687381 4.18981 8.4844
438 1 H 1.79084 4.66357 7.37637
439 1 H -0.346192 2.49865 7.51776
440 1 H 1.34607 2.29863 7.0167
441 1 H 0.403998 3.91048 5.13575
442 2 C 17.4542 2.58486 0.171042
443 2 C 16.8812 3.09209 17.9923
444 4 O 16.0404 2.06122 17.4597
445 1 H -0.737378 2.13981 0.0402107
446 1 H 17.7371 3.39184 0.882231
447 1 H 17.0434 1.73902 0.714324
448 1 H 17.6278 3.37238 17.2213
449 1 H 16.2822 3.97585 -0.989514
450 1 H 15.912 2.26907 16.5041
ITEM: TIMESTEP
6500
ITEM: NUMBER OF ATOMS
450
ITEM: BOX BOUNDS pp pp pp
-1.1546857055359627e+00 1.8079685705535926e+01
-1.1546857055359627e+00 1.8079685705535926e+01
-1.1546857055359627e+00 1.8079685705535926e+01
ITEM: ATOMS id type element x y z
1 2 C 13.5417 0.81975 2.67033
2 2 C 13.4153 0.945038 4.19518
3 4 O 12.6157 2.12188 4.57252
4 1 H 14.3053 1.50893 2.3689
5 1 H 13.6806 -0.233473 2.42951
6 1 H 12.6066 1.17747 2.23557
7 1 H 14.4173 1.02085 4.65871
8 1 H 12.9528 0.0148316 4.52628
9 1 H 12.3752 2.60235 3.77902
10 2 C 13.3579 15.7212 15.9941
11 2 C 12.2806 15.4167 17.0071
12 4 O 11.2744 14.5289 16.4743
13 1 H 13.0308 16.4678 15.278
14 1 H 14.2512 16.0494 16.5348
15 1 H 13.6467 14.8397 15.4206
16 1 H 11.8793 16.376 17.3168
17 1 H 12.7656 14.9771 17.9049
18 1 H 11.5931 14.217 15.6275
19 2 C 13.4816 4.04261 0.956212
20 2 C 12.4979 5.21625 1.00002
21 4 O 11.8647 5.19134 2.29263
22 1 H 12.9758 3.26148 1.46491
23 1 H 13.6866 3.69192 -0.058988
24 1 H 14.4292 4.24175 1.40173
25 1 H 11.7044 5.12875 0.223903
26 1 H 12.922 6.20508 0.723239
27 1 H 12.4516 5.51509 2.95911
28 2 C 0.0515295 7.2822 9.86792
29 2 C -0.794224 8.54363 9.76175
30 4 O -0.0949916 9.50754 9.02033
31 1 H 1.03783 7.56874 10.1969
32 1 H -0.421351 6.53438 10.4538
33 1 H 0.093943 6.96065 8.81554
34 1 H -1.1671 8.92809 10.729
35 1 H 17.5336 8.25598 9.20801
36 1 H 0.778515 9.59347 9.44126
37 2 C 2.28116 16.0051 13.1185
38 2 C 1.99397 17.4194 13.0843
39 4 O 2.72615 -0.959178 13.5198
40 1 H 1.31544 15.447 13.0211
41 1 H 2.82844 15.6888 12.2219
42 1 H 2.88226 15.7155 13.953
43 1 H 1.01817 17.6483 12.8065
44 1 H 17.5488 17.1034 0.44048
45 1 H 6.89373 5.98845 6.31302
46 2 C 6.69303 12.0596 7.78572
47 2 C 6.87802 12.2438 6.32589
48 4 O 5.8742 11.6365 5.55568
49 1 H 7.22521 12.7894 8.38547
50 1 H 5.61881 12.1148 8.04536
51 1 H 6.99793 11.0472 8.03576
52 1 H 7.80348 11.8055 6.002
53 1 H 6.9917 13.2993 6.10732
54 1 H 5.19673 12.3125 5.45253
55 2 C 16.5209 4.68055 12.9313
56 2 C 15.4578 3.73062 13.5912
57 4 O 15.4433 3.716 15.075
58 1 H 17.5128 4.46193 13.2775
59 1 H 16.4981 4.68368 11.8857
60 1 H 16.2966 5.65522 13.3254
61 1 H 15.6088 2.65136 13.3434
62 1 H 14.5084 3.93484 13.1918
63 1 H 15.7145 4.55215 15.4658
64 2 C 9.72733 10.5656 8.81862
65 2 C 9.48481 10.8731 10.2618
66 4 O 9.53835 9.74586 11.0965
67 1 H 9.13659 9.71896 8.54245
68 1 H 9.369 11.4048 8.19914
69 1 H 10.783 10.4085 8.62538
70 1 H 8.47378 11.2685 10.2945
71 1 H 10.1949 11.6481 10.538
72 1 H 10.4395 9.37827 11.1117
73 2 C 4.39788 2.71642 6.60062
74 2 C 4.04321 4.20509 6.28647
75 4 O 4.38173 5.09097 7.36265
76 1 H 3.52781 2.10587 6.91615
77 1 H 4.81392 2.25085 5.68552
78 1 H 5.22901 2.63157 7.30732
79 1 H 2.99519 4.3002 6.06705
80 1 H 4.5993 4.51624 5.39331
81 1 H 5.24719 4.81746 7.6915
82 2 C 6.40964 10.0552 12.3511
83 2 C 5.98829 8.73811 12.9856
84 4 O 5.19983 9.10615 14.104
85 1 H 6.71978 10.6656 13.237
86 1 H 7.26042 9.92747 11.7013
87 1 H 5.5863 10.578 11.8176
88 1 H 6.89127 8.19829 13.3211
89 1 H 5.44827 8.064 12.3274
90 1 H 4.59965 8.39262 14.2959
91 2 C 11.0047 3.81571 15.3969
92 2 C 11.8792 2.89138 16.2157
93 4 O 12.9372 2.21689 15.568
94 1 H 10.4184 3.17465 14.7748
95 1 H 10.3776 4.47361 15.9618
96 1 H 11.4373 4.57024 14.7122
97 1 H 11.2482 1.98374 16.434
98 1 H 12.2683 3.31674 17.1765
99 1 H 13.6737 2.76693 15.3385
100 2 C 6.25865 13.544 11.055
101 2 C 5.57166 14.3991 12.1076
102 4 O 6.43484 15.4387 12.5221
103 1 H 7.24835 13.0983 11.3603
104 1 H 5.59197 12.7371 10.7521
105 1 H 6.48316 14.1717 10.1793
106 1 H 5.24146 13.8188 12.9939
107 1 H 4.67325 14.8565 11.7187
108 1 H 5.95372 15.8921 13.2349
109 2 C 0.519964 -0.886285 6.01895
110 2 C 1.67786 -0.955702 6.94097
111 4 O 2.50739 17.2673 6.515
112 1 H 0.971838 -0.458156 5.12195
113 1 H 0.228791 17.3033 5.94279
114 1 H -0.300107 -0.314452 6.4043
115 1 H 1.37623 18.0779 7.97706
116 1 H 2.09249 0.0575727 6.87112
117 1 H 2.60279 17.2831 5.55142
118 2 C 4.67645 8.87561 8.76968
119 2 C 3.67455 9.91839 9.10032
120 4 O 2.77292 9.59479 10.1755
121 1 H 4.26186 7.92106 8.38566
122 1 H 5.37418 9.21463 7.96385
123 1 H 5.29267 8.5143 9.57915
124 1 H 3.08207 10.0669 8.19245
125 1 H 4.21535 10.8498 9.29339
126 1 H 3.15301 9.93765 11.0151
127 2 C 5.11591 -0.826743 16.6742
128 2 C 4.93612 17.0732 16.0115
129 4 O 4.97558 17.1828 14.6087
130 1 H 4.02777 -0.498724 16.8221
131 1 H 5.59838 -0.823121 17.6594
132 1 H 5.56934 -0.0798448 16.0161
133 1 H 4.03579 16.5392 16.3533
134 1 H 5.78423 16.4031 16.2078
135 1 H 4.26924 17.7503 14.2573
136 2 C 8.36368 12.8751 1.58652
137 2 C 7.37565 11.7924 1.6841
138 4 O 7.26613 11.1346 2.92271
139 1 H 9.38292 12.5445 1.65384
140 1 H 8.07376 13.4799 0.72376
141 1 H 8.28193 13.5778 2.40991
142 1 H 7.56295 10.9855 0.909138
143 1 H 6.38666 12.1778 1.40864
144 1 H 6.81556 11.6503 3.58246
145 2 C 8.70139 15.2469 4.52294
146 2 C 9.59718 14.1092 4.79825
147 4 O 9.80053 13.9308 6.13769
148 1 H 8.35994 15.2778 3.48558
149 1 H 7.81823 15.2074 5.19792
150 1 H 9.18114 16.2003 4.92676
151 1 H 10.4982 14.29 4.25489
152 1 H 9.16198 13.1551 4.40322
153 1 H 10.571 13.3376 6.1794
154 2 C 17.1035 0.161574 14.1439
155 2 C -0.944748 1.0738 14.0037
156 4 O -0.939359 1.76175 12.709
157 1 H 16.9206 -0.349977 13.2025
158 1 H 17.3077 -0.617104 14.8732
159 1 H 16.226 0.735985 14.4646
160 1 H -0.0444269 0.459613 14.0323
161 1 H -0.988314 1.80262 14.8369
162 1 H -0.0373102 2.0744 12.6522
163 2 C 16.0372 10.2087 6.32306
164 2 C 15.4366 8.79866 6.41169
165 4 O 14.2305 8.5944 5.62195
166 1 H 15.3606 10.9282 6.78409
167 1 H 17.0052 10.2165 6.80471
168 1 H 16.2271 10.4511 5.27461
169 1 H 15.1445 8.44908 7.37232
170 1 H 16.2227 8.13844 6.06223
171 1 H 14.4564 8.82795 4.71277
172 2 C 14.1484 8.91728 2.65471
173 2 C 13.9083 10.5026 2.82854
174 4 O 13.8737 10.8993 1.42423
175 1 H 13.9548 8.80982 1.57817
176 1 H 15.1179 8.54773 2.94725
177 1 H 13.3699 8.29123 3.152
178 1 H 14.7967 10.876 3.30755
179 1 H 13.1296 10.7602 3.58252
180 1 H 13.9766 11.8689 1.24546
181 2 C 17.0282 2.04279 3.60771
182 2 C 16.3117 3.4145 3.58118
183 4 O 16.699 4.10469 4.80897
184 1 H -1.11586 1.95963 3.65699
185 1 H 16.7302 1.59081 4.59568
186 1 H 16.78 1.27125 2.88006
187 1 H 15.238 3.11915 3.63484
188 1 H 16.5103 4.01663 2.6763
189 1 H 16.5014 5.04386 4.96246
190 2 C 8.43178 17.3617 7.77496
191 2 C 7.80862 -0.541606 8.09779
192 4 O 7.6526 0.0321975 6.84247
193 1 H 9.32905 17.5137 7.17213
194 1 H 8.62971 16.82 8.69683
195 1 H 7.71109 16.7309 7.25579
196 1 H 8.46749 0.0776096 8.70695
197 1 H 6.78331 -0.676888 8.55715
198 1 H 7.59947 0.985304 6.92305
199 2 C 8.52707 -0.210132 13.2267
200 2 C 8.56848 -0.868587 11.853
201 4 O 8.79801 16.9317 12.0085
202 1 H 8.33109 0.870439 13.0383
203 1 H 7.67841 -0.577992 13.8258
204 1 H 9.45395 -0.168028 13.8372
205 1 H 9.4091 -0.609597 11.1942
206 1 H 7.64662 -0.825253 11.3306
207 1 H 7.95771 16.5048 11.9776
208 2 C 2.0242 9.9856 5.52416
209 2 C 0.979947 10.4388 4.56318
210 4 O 1.38851 11.4759 3.6086
211 1 H 2.81236 9.37482 5.05844
212 1 H 2.44519 10.8432 6.02115
213 1 H 1.57325 9.36129 6.30738
214 1 H 0.0910992 10.8261 5.10626
215 1 H 0.719317 9.5422 3.95577
216 1 H 0.684322 11.6328 2.9805
217 2 C -0.586255 7.83936 0.183297
218 2 C 17.7482 6.74294 -0.427536
219 4 O 17.964 6.66554 17.3946
220 1 H 0.447098 7.50858 0.272359
221 1 H -0.559971 8.63074 -0.550246
222 1 H -0.890632 8.19996 1.20812
223 1 H 16.7032 6.98133 -0.161743
224 1 H 17.9358 5.82206 0.14273
225 1 H 17.1598 6.34129 16.95
226 2 C 13.0634 4.00289 6.59436
227 2 C 13.0223 4.96624 5.45858
228 4 O 14.2151 5.72496 5.4125
229 1 H 13.3709 4.48125 7.5302
230 1 H 12.0337 3.60704 6.76429
231 1 H 13.7119 3.18635 6.37888
232 1 H 12.1858 5.68353 5.52602
233 1 H 12.9289 4.51148 4.45905
234 1 H 14.021 6.65596 5.63214
235 2 C -0.347248 14.6754 2.29373
236 2 C 17.8809 15.3055 1.27669
237 4 O -1.05784 16.6366 1.04241
238 1 H 0.685973 14.657 2.0147
239 1 H -0.483353 15.2239 3.26355
240 1 H -0.758004 13.6206 2.54261
241 1 H 16.8495 15.2712 1.56534
242 1 H -1.31462 14.7029 0.39664
243 1 H -0.536798 3.13914 5.1616
244 2 C 14.5581 14.1415 3.77012
245 2 C 13.4505 13.7768 2.72552
246 4 O 13.725 13.6594 1.39525
247 1 H 14.6257 15.1996 3.67386
248 1 H 14.475 13.8465 4.73421
249 1 H 15.6004 13.5633 3.61645
250 1 H 12.7638 14.5549 2.95571
251 1 H 12.952 12.7823 2.91834
252 1 H 14.0364 14.4981 1.05409
253 2 C 1.04558 4.52491 16.5275
254 2 C 0.735291 5.09037 15.106
255 4 O 0.327217 6.43653 15.0773
256 1 H 1.01864 3.42169 16.4597
257 1 H 1.97776 4.79315 17.0412
258 1 H 0.195835 4.84118 17.1816
259 1 H -0.0796577 4.5111 14.7216
260 1 H 1.48766 5.07335 14.3356
261 1 H -0.169591 6.59093 15.9012
262 2 C 2.32096 17.9554 1.1207
263 2 C 1.80074 17.8285 2.5431
264 4 O 2.60768 17.0028 3.44572
265 1 H 2.93958 -0.388732 1.02724
266 1 H 2.79499 17.0714 0.642199
267 1 H 1.477 -1.04805 0.478538
268 1 H 0.747593 17.4825 2.46034
269 1 H 1.75238 -0.381822 2.87869
270 1 H 2.41969 16.0651 3.4079
271 2 C 13.4484 0.0179937 -0.846363
272 2 C 14.5324 -1.03529 -0.68166
273 4 O 15.8368 -0.598824 -0.377464
274 1 H 13.5065 0.392426 17.3877
275 1 H 12.4955 -0.447068 -0.597045
276 1 H 13.6472 0.788763 -0.137578
277 1 H 14.6212 17.5497 17.6751
278 1 H 14.3317 17.6223 0.198526
279 1 H 15.9643 0.24213 -0.812307
280 2 C 10.3937 2.17144 8.4858
281 2 C 9.4665 3.26096 8.07129
282 4 O 8.16407 2.75485 7.86658
283 1 H 10.4498 1.35341 7.77391
284 1 H 11.3562 2.68461 8.55234
285 1 H 10.1342 1.81177 9.47982
286 1 H 9.84815 3.69201 7.18642
287 1 H 9.44133 4.0514 8.81873
288 1 H 7.6355 3.53604 7.96222
289 2 C 7.8873 7.40385 9.57592
290 2 C 7.38252 6.77871 8.30006
291 4 O 6.96889 5.39002 8.51919
292 1 H 8.82971 7.06338 9.87475
293 1 H 7.97316 8.44964 9.42184
294 1 H 7.18988 7.14636 10.3446
295 1 H 8.16115 6.8346 7.54387
296 1 H 6.49055 7.27871 7.8729
297 1 H 6.63232 5.32806 9.44907
298 2 C 12.892 12.063 7.5699
299 2 C 12.395 11.3773 6.25058
300 4 O 11.5638 12.118 5.41021
301 1 H 13.4456 11.2627 8.10021
302 1 H 13.5563 12.935 7.45544
303 1 H 11.973 12.3087 8.14925
304 1 H 11.9635 10.4154 6.61938
305 1 H 13.2777 11.0405 5.73083
306 1 H 10.7997 11.6416 5.04016
307 2 C 13.8988 6.58284 17.3279
308 2 C 14.7642 7.38738 16.3604
309 4 O 15.6802 6.38628 15.8051
310 1 H 14.5341 6.29794 -1.08014
311 1 H 12.985 7.05627 17.6926
312 1 H 13.5366 5.61249 16.9052
313 1 H 15.2958 8.14743 16.9424
314 1 H 14.197 7.84502 15.5385
315 1 H 16.0376 6.64156 14.9428
316 2 C 0.995509 12.7169 7.37998
317 2 C 2.19104 13.6171 7.1376
318 4 O 1.88472 14.8215 7.81343
319 1 H 0.135742 13.127 6.83648
320 1 H 1.04402 11.6625 7.09204
321 1 H 0.766861 12.6608 8.44313
322 1 H 2.32007 13.7324 6.03144
323 1 H 3.11123 13.2022 7.54517
324 1 H 2.42981 15.5456 7.49125
325 2 C 15.6425 0.522342 9.4148
326 2 C 17.0561 -0.0722187 9.49169
327 4 O -1.20357 0.705887 10.1124
328 1 H 15.5748 1.43746 8.87109
329 1 H 15.0693 -0.209001 8.85542
330 1 H 15.228 0.659379 10.4141
331 1 H 17.4003 -0.356963 8.49282
332 1 H 16.9449 18.276 10.1263
333 1 H 17.8686 0.801113 11.0803
334 2 C 2.20564 4.99638 10.7726
335 2 C 1.68052 3.57341 10.9271
336 4 O 1.62315 3.25932 12.2978
337 1 H 2.36156 5.37344 9.75481
338 1 H 1.43672 5.6056 11.3181
339 1 H 3.18551 5.08306 11.3144
340 1 H 2.36059 2.80764 10.5248
341 1 H 0.706787 3.45841 10.4308
342 1 H 1.4382 4.05789 12.7777
343 2 C 8.02042 15.2459 15.9815
344 2 C 7.98756 14.1688 17.0635
345 4 O 7.0526 14.4497 -1.1236
346 1 H 8.91896 14.9713 15.3245
347 1 H 7.06424 15.3504 15.4469
348 1 H 8.23999 16.2417 16.4423
349 1 H 9.02749 14.2164 17.4712
350 1 H 7.735 13.1972 16.6486
351 1 H 6.16692 14.3304 17.7506
352 2 C 5.36874 4.95183 13.5048
353 2 C 6.58239 4.95554 12.5623
354 4 O 6.15382 4.57711 11.2221
355 1 H 4.87288 3.97785 13.4629
356 1 H 5.66755 5.22807 14.5213
357 1 H 4.62295 5.6487 13.1889
358 1 H 7.49131 4.37441 12.8288
359 1 H 6.83558 6.00142 12.3907
360 1 H 5.84762 3.68531 11.1182
361 2 C 11.2534 16.5033 9.28838
362 2 C 10.6478 15.3752 10.0579
363 4 O 11.0512 15.2509 11.4308
364 1 H 12.2604 16.58 9.67528
365 1 H 11.3822 16.2945 8.24553
366 1 H 10.7386 17.4473 9.42848
367 1 H 10.9079 14.4299 9.5717
368 1 H 9.54325 15.4046 9.98163
369 1 H 10.3523 15.6921 11.9577
370 2 C 14.9638 9.95534 11.9246
371 2 C 14.609 9.87735 10.4667
372 4 O 13.1939 10.064 10.2715
373 1 H 15.8714 9.34511 12.1636
374 1 H 15.1139 10.9926 12.2038
375 1 H 14.1288 9.50934 12.5245
376 1 H 14.8209 8.8829 10.0797
377 1 H 15.1243 10.6123 9.85239
378 1 H 12.948 10.9279 10.6122
379 2 C -0.270077 5.25591 2.66194
380 2 C 1.25096 5.43846 2.86061
381 4 O 1.58086 5.17485 4.26006
382 1 H -0.654977 4.26821 2.84344
383 1 H -0.825441 6.04952 3.20156
384 1 H -0.428145 5.48474 1.60275
385 1 H 1.57884 6.4556 2.58409
386 1 H 1.82841 4.77217 2.22927
387 1 H 2.5375 5.2135 4.35606
388 2 C 14.6571 14.8966 11.3013
389 2 C 14.0282 13.7236 12.1426
390 4 O 12.9282 13.1063 11.4387
391 1 H 15.1087 15.6453 11.9411
392 1 H 15.3812 14.4945 10.5987
393 1 H 13.929 15.3817 10.6587
394 1 H 13.7601 14.0127 13.1777
395 1 H 14.7761 12.952 12.2767
396 1 H 12.2879 13.8506 11.3872
397 2 C 1.23346 11.6442 12.8655
398 2 C 1.9207 10.334 13.0613
399 4 O 3.25173 10.4304 12.6258
400 1 H 1.49585 12.0857 11.9503
401 1 H 0.187277 11.4332 12.9403
402 1 H 1.51757 12.3907 13.601
403 1 H 1.45806 9.47649 12.5918
404 1 H 1.85427 10.1139 14.0912
405 1 H 3.88727 9.8983 13.1117
406 2 C 4.07127 7.79762 17.4945
407 2 C 2.98016 8.24736 16.5207
408 4 O 3.09016 7.47412 15.2409
409 1 H 4.11648 6.69892 17.7141
410 1 H 5.05509 8.21671 17.2463
411 1 H 3.80103 8.27938 -0.801621
412 1 H 3.14544 9.27325 16.3587
413 1 H 1.97754 8.08932 16.8712
414 1 H 2.21806 7.11586 15.0122
415 2 C 9.0435 8.26968 3.87343
416 2 C 9.30349 9.41264 4.89306
417 4 O 9.64299 10.718 4.25034
418 1 H 8.76361 7.37443 4.43137
419 1 H 8.18928 8.54051 3.24638
420 1 H 9.87634 7.99025 3.22903
421 1 H 10.1575 9.13269 5.51162
422 1 H 8.46054 9.55649 5.56358
423 1 H 8.87793 10.9687 3.7305
424 2 C 4.81087 14.5319 4.03821
425 2 C 3.87673 13.6305 3.25319
426 4 O 2.4923 14.0337 3.28678
427 1 H 4.46342 14.5965 5.06549
428 1 H 5.81184 14.0984 3.915
429 1 H 4.8 15.5399 3.71359
430 1 H 3.9519 12.6577 3.74064
431 1 H 4.30732 13.532 2.24411
432 1 H 1.92061 13.3437 3.70584
433 2 C 0.382094 4.31242 7.71506
434 2 C 0.522408 3.05359 6.87087
435 4 O 0.355114 3.14781 5.49542
436 1 H -0.708939 4.50036 7.59671
437 1 H 0.455037 4.13502 8.77751
438 1 H 0.949139 5.19637 7.40558
439 1 H -0.224516 2.36721 7.17136
440 1 H 1.50156 2.53839 6.97284
441 1 H 0.887619 3.72882 4.88155
442 2 C 17.3792 2.46331 -0.0146496
443 2 C 16.6145 2.84528 18.0489
444 4 O 15.8262 1.74047 17.6535
445 1 H -1.42268 1.48327 -0.122939
446 1 H 18.2185 3.08263 0.236462
447 1 H 16.8367 2.39061 0.914943
448 1 H 17.1648 3.12614 17.1762
449 1 H 15.9541 3.6764 -0.8743
450 1 H 15.2604 2.08824 16.9329
ITEM: TIMESTEP
6600
ITEM: NUMBER OF ATOMS
450
ITEM: BOX BOUNDS pp pp pp
-1.1927099610012508e+00 1.8117709961001225e+01
-1.1927099610012508e+00 1.8117709961001225e+01
-1.1927099610012508e+00 1.8117709961001225e+01
ITEM: ATOMS id type element x y z
1 2 C 13.653 0.637981 2.62104
2 2 C 13.5519 0.694381 4.13484
3 4 O 12.8774 1.86364 4.4404
4 1 H 13.8274 1.67793 2.32389
5 1 H 14.4464 -0.0325993 2.30939
6 1 H 12.6873 0.2442 2.24293
7 1 H 14.5203 0.685802 4.65304
8 1 H 13.0141 -0.200806 4.43895
9 1 H 11.9354 1.66902 4.37328
10 2 C 13.2669 15.69 15.7469
11 2 C 12.2755 15.3992 16.908
12 4 O 11.3039 14.4806 16.5421
13 1 H 12.717 15.7622 14.8178
14 1 H 13.8575 16.6123 15.7748
15 1 H 13.923 14.8075 15.6419
16 1 H 11.8352 16.3557 17.1464
17 1 H 12.8825 15.0005 17.7379
18 1 H 11.4945 14.1064 15.6785
19 2 C 13.3899 3.92187 1.00119
20 2 C 12.7209 5.29976 1.05953
21 4 O 11.8739 5.51832 2.21665
22 1 H 12.7367 3.05202 0.828572
23 1 H 14.2065 3.99344 0.236924
24 1 H 13.9186 3.79024 1.97987
25 1 H 12.0227 5.46234 0.244213
26 1 H 13.5603 5.99591 1.01942
27 1 H 12.3459 5.60427 3.0389
28 2 C 0.125377 7.33021 9.96543
29 2 C -0.753655 8.57289 9.63912
30 4 O -0.13193 9.61639 8.94035
31 1 H 0.915598 7.62168 10.6816
32 1 H -0.540654 6.57874 10.424
33 1 H 0.605544 6.99615 9.05529
34 1 H -1.26031 8.92148 10.5282
35 1 H 17.7463 8.19878 8.96474
36 1 H 0.699013 9.85248 9.36205
37 2 C 2.02861 16.0017 13.5029
38 2 C 1.83523 17.491 13.1517
39 4 O 2.27548 -0.828536 13.6942
40 1 H 1.08206 15.7106 13.9042
41 1 H 2.15259 15.2635 12.7156
42 1 H 2.69828 15.9415 14.3336
43 1 H 1.05226 17.6187 12.3398
44 1 H 17.3205 17.0955 0.402662
45 1 H 6.60453 3.92278 6.45949
46 2 C 6.96119 12.2033 7.71826
47 2 C 7.11477 12.1175 6.18188
48 4 O 5.87465 11.7997 5.50427
49 1 H 7.93906 12.2881 8.17159
50 1 H 6.4759 13.1251 8.03576
51 1 H 6.43223 11.3402 8.10938
52 1 H 7.79257 11.3248 5.89766
53 1 H 7.50716 13.0897 5.84725
54 1 H 5.17212 12.0079 6.12883
55 2 C 16.5493 4.68838 12.8631
56 2 C 15.5424 3.7626 13.4559
57 4 O 15.5215 4.04069 14.9009
58 1 H 17.5891 4.40783 13.2699
59 1 H 16.4184 4.63115 11.7702
60 1 H 16.4233 5.77794 13.107
61 1 H 15.7817 2.71143 13.3413
62 1 H 14.4936 3.87464 13.0537
63 1 H 15.9926 4.86774 15.0657
64 2 C 9.9896 10.4596 8.77562
65 2 C 9.25289 10.6687 10.1119
66 4 O 9.68372 9.68484 11.0223
67 1 H 9.47236 9.61509 8.25311
68 1 H 9.96095 11.2952 8.11373
69 1 H 11.0335 10.1496 8.90074
70 1 H 8.16648 10.636 9.94847
71 1 H 9.44455 11.6883 10.4914
72 1 H 10.6583 9.71047 11.0283
73 2 C 4.2203 2.75143 6.71056
74 2 C 4.11073 4.1981 6.34055
75 4 O 4.35134 5.15195 7.40025
76 1 H 4.28694 2.66068 7.80147
77 1 H 3.39417 2.20044 6.33817
78 1 H 5.19285 2.32292 6.44259
79 1 H 3.07651 4.36772 6.00618
80 1 H 4.79541 4.43424 5.51268
81 1 H 5.18043 4.87586 7.80966
82 2 C 6.51052 10.0436 12.2862
83 2 C 5.82476 8.76159 12.7506
84 4 O 5.19534 9.10645 14.0044
85 1 H 6.69559 10.5902 13.1518
86 1 H 7.45113 9.71353 11.7692
87 1 H 5.88668 10.6453 11.6131
88 1 H 6.60014 8.05174 12.971
89 1 H 5.14343 8.32303 12.0035
90 1 H 4.41674 8.51831 14.1321
91 2 C 10.9426 3.7197 15.5796
92 2 C 11.9841 2.90858 16.2935
93 4 O 12.8715 2.27998 15.3001
94 1 H 10.2583 3.18088 14.9244
95 1 H 10.4399 4.40942 16.2965
96 1 H 11.3323 4.5082 14.8952
97 1 H 11.5028 1.99814 16.7646
98 1 H 12.5941 3.29122 17.0924
99 1 H 13.6581 2.91853 15.185
100 2 C 6.83251 13.7513 11.2287
101 2 C 5.70689 14.3735 12.0565
102 4 O 6.12943 15.7115 12.3201
103 1 H 7.72764 13.4977 11.7871
104 1 H 6.52202 12.8279 10.7508
105 1 H 7.10196 14.4573 10.4665
106 1 H 5.43449 13.8251 12.9374
107 1 H 4.82185 14.4856 11.4151
108 1 H 5.71561 15.9786 13.1665
109 2 C 0.320736 -0.854853 6.08939
110 2 C 1.59613 -1.14065 6.93347
111 4 O 2.4384 17.1947 6.39618
112 1 H 0.560361 -0.610091 5.06364
113 1 H -0.316512 17.5947 6.23708
114 1 H -0.173656 -0.0457415 6.64392
115 1 H 1.30199 17.8005 7.92663
116 1 H 2.08081 -0.178601 7.08766
117 1 H 2.45338 17.3334 5.44002
118 2 C 4.6511 8.91817 8.98263
119 2 C 3.59047 10.019 8.98717
120 4 O 2.59688 9.70131 9.92217
121 1 H 4.38085 7.93148 8.64044
122 1 H 5.52705 9.17249 8.38911
123 1 H 5.10823 8.76534 9.95135
124 1 H 3.09657 10.1357 8.01244
125 1 H 4.07394 10.9488 9.31118
126 1 H 2.90924 9.95363 10.7887
127 2 C 5.49672 -0.938461 16.6238
128 2 C 5.04739 16.9611 16.2595
129 4 O 5.00448 16.6947 14.8405
130 1 H 5.06079 -0.217815 15.9562
131 1 H 5.09077 -0.714508 17.5825
132 1 H 6.57024 -0.809571 16.6812
133 1 H 4.05008 16.7645 16.6849
134 1 H 5.67911 16.2251 16.8164
135 1 H 4.38111 17.3638 14.5216
136 2 C 8.43879 12.7499 1.37444
137 2 C 7.39017 11.6452 1.66327
138 4 O 7.39347 11.234 3.0722
139 1 H 9.33432 12.551 2.00648
140 1 H 8.72913 12.748 0.319912
141 1 H 8.08972 13.745 1.62454
142 1 H 7.72584 10.7977 1.14769
143 1 H 6.36991 11.8938 1.31369
144 1 H 6.53817 11.2382 3.51623
145 2 C 8.43736 15.4927 4.60902
146 2 C 9.3044 14.2272 4.6914
147 4 O 9.60909 13.9729 6.0664
148 1 H 8.20593 15.6912 3.55783
149 1 H 7.48898 15.3692 5.09087
150 1 H 8.90949 16.3092 5.11158
151 1 H 10.2201 14.4666 4.08251
152 1 H 8.77305 13.4162 4.24285
153 1 H 10.2049 13.2148 6.01499
154 2 C 16.9177 -0.039129 14.0431
155 2 C -1.07233 0.762844 14.0992
156 4 O -0.948669 1.37791 12.8087
157 1 H 16.9606 -0.992784 13.5185
158 1 H 16.6299 -0.294443 15.054
159 1 H 16.1548 0.571338 13.5433
160 1 H -0.188462 0.146282 14.2433
161 1 H -1.1137 1.53512 14.8799
162 1 H -0.0192625 1.68518 12.7169
163 2 C 16.1233 9.89387 6.19955
164 2 C 15.2053 8.71931 6.5812
165 4 O 14.2338 8.58363 5.53799
166 1 H 15.6411 10.839 6.45555
167 1 H 17.0633 9.83215 6.75045
168 1 H 16.2929 9.86089 5.12319
169 1 H 14.5594 8.86831 7.47005
170 1 H 15.7872 7.80744 6.74438
171 1 H 14.7001 8.62202 4.69935
172 2 C 14.2183 8.78137 2.18351
173 2 C 14.0546 10.2699 2.18448
174 4 O 14.415 10.9787 1.04904
175 1 H 13.7491 8.37773 1.28694
176 1 H 15.2667 8.4533 2.28761
177 1 H 13.6319 8.36723 3.01725
178 1 H 14.7334 10.5917 3.0356
179 1 H 13.0396 10.4328 2.48577
180 1 H 14.0872 11.8631 1.05654
181 2 C 16.8819 2.04449 3.45247
182 2 C 16.252 3.34246 3.7645
183 4 O 16.979 4.07702 4.7471
184 1 H 17.7571 2.13605 2.82334
185 1 H 17.2982 1.521 4.29938
186 1 H 16.2864 1.22742 3.05095
187 1 H 15.2796 3.08173 4.15247
188 1 H 16.1472 3.97323 2.90389
189 1 H 16.5438 4.33066 5.54075
190 2 C 8.38739 17.2341 7.71229
191 2 C 7.82041 -0.715054 8.09089
192 4 O 7.36788 0.126577 7.01288
193 1 H 9.33105 17.3954 7.2087
194 1 H 8.55708 16.5619 8.57648
195 1 H 7.61894 16.6912 7.17067
196 1 H 8.62299 -0.157762 8.62739
197 1 H 7.04651 -0.804718 8.81854
198 1 H 7.58062 1.04503 7.26703
199 2 C 8.59257 -0.327863 13.1392
200 2 C 8.3011 17.9409 12.1139
201 4 O 8.68337 16.5935 12.4433
202 1 H 8.39063 0.687142 12.8038
203 1 H 7.94067 -0.539974 13.9684
204 1 H 9.5881 -0.359889 13.547
205 1 H 8.86162 -1.29499 11.188
206 1 H 7.21919 -1.46944 11.8457
207 1 H 7.80564 16.1597 12.6427
208 2 C 2.09764 9.96612 5.40368
209 2 C 0.964659 10.3745 4.46442
210 4 O 1.51414 11.1754 3.45192
211 1 H 2.72281 9.23598 4.866
212 1 H 2.65604 10.8422 5.75675
213 1 H 1.7862 9.47696 6.33326
214 1 H 0.196608 10.9442 4.94833
215 1 H 0.461606 9.46463 4.17179
216 1 H 1.45444 10.8282 2.56192
217 2 C -0.564838 8.03818 0.28015
218 2 C 17.7178 7.17052 -0.41696
219 4 O -1.09181 6.79616 17.6375
220 1 H 0.413511 7.74815 -0.0945772
221 1 H -0.65151 9.08837 0.119955
222 1 H -0.594923 7.87555 1.34312
223 1 H 16.7736 7.74747 -0.530196
224 1 H 17.4094 6.35176 0.226993
225 1 H 17.6032 6.28552 17.1171
226 2 C 13.3972 4.21499 6.86096
227 2 C 13.0832 4.91195 5.56671
228 4 O 14.2996 5.76006 5.26269
229 1 H 13.3499 4.87967 7.73632
230 1 H 12.5746 3.53569 7.02611
231 1 H 14.3108 3.65886 6.76761
232 1 H 12.1948 5.54469 5.61158
233 1 H 12.9363 4.25337 4.75794
234 1 H 14.1402 6.67901 5.45112
235 2 C -0.213044 15.2457 2.26927
236 2 C 17.8551 15.5116 1.46901
237 4 O -1.15125 16.8296 0.769214
238 1 H 0.623957 15.4333 1.58503
239 1 H -0.108335 16.0102 3.01242
240 1 H -0.152474 14.2769 2.64684
241 1 H 16.9293 15.7514 2.06862
242 1 H 17.6876 14.5898 0.76776
243 1 H -0.600793 3.59316 5.48359
244 2 C 14.6934 14.0439 3.46648
245 2 C 13.3727 13.821 2.89457
246 4 O 13.6316 13.8218 1.40994
247 1 H 15.1001 14.7719 2.7602
248 1 H 14.6027 14.4248 4.55176
249 1 H 15.4441 13.3201 3.62671
250 1 H 12.7872 14.6616 3.32272
251 1 H 12.744 12.9332 3.19811
252 1 H 13.3195 14.659 1.05735
253 2 C 0.940011 4.3832 16.3878
254 2 C 0.505042 5.05503 15.1532
255 4 O 0.391261 6.46073 15.3216
256 1 H 1.30961 3.3525 16.2631
257 1 H 1.70348 5.01071 16.7963
258 1 H 0.141087 4.46543 17.1021
259 1 H -0.501811 4.67342 14.854
260 1 H 1.13429 4.98719 14.2725
261 1 H 0.0462652 6.69523 16.1825
262 2 C 2.2242 18.1119 1.05936
263 2 C 1.88502 18.1837 2.57873
264 4 O 2.63589 17.1662 3.22384
265 1 H 3.24576 -0.951237 0.90612
266 1 H 2.02111 17.0954 0.71274
267 1 H 1.66493 -0.533572 0.40207
268 1 H 0.843047 17.9837 2.66613
269 1 H 2.14112 -0.133403 2.94839
270 1 H 2.32151 16.2679 3.01841
271 2 C 13.6128 -0.197078 -0.80782
272 2 C 14.4903 17.9416 -0.347807
273 4 O 15.7615 -0.84261 -0.143958
274 1 H 13.9778 0.15113 17.5109
275 1 H 12.5557 -0.546151 -0.836607
276 1 H 13.7427 0.606608 -0.0843883
277 1 H 14.511 17.0653 18.3117
278 1 H 14.1235 17.5433 0.642294
279 1 H 15.899 -0.162733 -0.79572
280 2 C 10.0982 2.06819 8.65383
281 2 C 9.27994 3.25781 8.13382
282 4 O 7.96507 2.80694 7.73412
283 1 H 10.158 1.34898 7.85265
284 1 H 11.1341 2.30667 8.89829
285 1 H 9.57085 1.6596 9.51803
286 1 H 9.83292 3.59723 7.21076
287 1 H 9.1351 4.05363 8.88588
288 1 H 7.40233 3.51703 8.0804
289 2 C 8.16325 7.10353 9.26381
290 2 C 7.37089 6.42945 8.15223
291 4 O 6.85307 5.16845 8.5854
292 1 H 9.11623 6.51111 9.36977
293 1 H 8.38293 8.15694 9.03116
294 1 H 7.65386 7.05976 10.2576
295 1 H 8.06344 6.2693 7.3303
296 1 H 6.48452 6.92152 7.76516
297 1 H 6.53284 5.21792 9.48737
298 2 C 12.747 12.5642 7.59378
299 2 C 12.4683 11.347 6.75894
300 4 O 11.8668 11.729 5.54492
301 1 H 13.3207 12.4272 8.46438
302 1 H 13.1836 13.3035 6.9383
303 1 H 11.7889 13.0066 7.81024
304 1 H 11.838 10.686 7.34779
305 1 H 13.4323 10.8051 6.62995
306 1 H 11.3362 11.0068 5.16433
307 2 C 14.2879 6.6713 17.4313
308 2 C 14.9001 7.51578 16.4042
309 4 O 16.0045 6.80338 15.8474
310 1 H 15.0164 6.40697 -1.11007
311 1 H 13.421 7.08436 17.9345
312 1 H 13.9196 5.72467 17.0302
313 1 H 15.1364 8.49332 16.8184
314 1 H 14.1789 7.72205 15.6085
315 1 H 16.5164 7.37032 15.2451
316 2 C 0.844196 12.8826 7.04496
317 2 C 2.06921 13.7313 7.06644
318 4 O 1.90177 14.9424 7.72451
319 1 H 0.100383 13.2243 6.34655
320 1 H 1.10898 11.8762 6.76891
321 1 H 0.305053 12.8775 7.98967
322 1 H 2.40288 13.8168 6.0633
323 1 H 2.88832 13.172 7.57688
324 1 H 2.3463 15.66 7.24593
325 2 C 15.5519 0.419834 9.32765
326 2 C 16.9654 -0.0830666 9.60632
327 4 O 17.8474 0.997736 9.92283
328 1 H 15.5638 1.38234 8.82431
329 1 H 14.9958 -0.307748 8.70743
330 1 H 15.0636 0.617234 10.2885
331 1 H 17.3448 -0.538413 8.66935
332 1 H 16.895 -0.847353 10.4079
333 1 H 17.9483 1.02386 10.8758
334 2 C 2.31187 4.73242 10.5375
335 2 C 1.78667 3.38055 10.9675
336 4 O 1.45438 3.27052 12.41
337 1 H 2.20019 4.81921 9.48133
338 1 H 1.71529 5.55257 10.9035
339 1 H 3.35328 4.90743 10.787
340 1 H 2.49601 2.61381 10.8069
341 1 H 0.903659 3.10917 10.3615
342 1 H 0.875691 4.04386 12.5627
343 2 C 8.29484 15.5252 16.0576
344 2 C 8.20971 14.3931 17.0716
345 4 O 7.15917 14.5849 18.0312
346 1 H 9.26848 15.5575 15.4785
347 1 H 7.47881 15.4711 15.2917
348 1 H 8.2352 16.462 16.5492
349 1 H 9.10265 14.4571 17.5657
350 1 H 8.13038 13.3728 16.6193
351 1 H 6.31143 14.7398 17.6351
352 2 C 5.31385 4.58012 13.541
353 2 C 6.33069 4.94404 12.5168
354 4 O 5.95177 4.63087 11.1678
355 1 H 5.19821 3.51033 13.7943
356 1 H 5.71326 5.11978 14.3774
357 1 H 4.3131 4.98539 13.2927
358 1 H 7.28106 4.4695 12.6833
359 1 H 6.53181 6.01376 12.631
360 1 H 5.81206 3.67507 11.1219
361 2 C 11.5336 16.4955 9.52447
362 2 C 10.9093 15.319 10.3386
363 4 O 11.0038 15.5614 11.7349
364 1 H 12.63 16.4463 9.42474
365 1 H 11.145 16.5972 8.49052
366 1 H 11.2279 17.4173 10.0495
367 1 H 11.4051 14.378 10.1479
368 1 H 9.87253 15.2147 10.0234
369 1 H 10.1278 15.7851 12.067
370 2 C 14.9575 10.1716 12.1361
371 2 C 14.452 10.0553 10.7117
372 4 O 13.0935 10.2606 10.5812
373 1 H 16.0128 10.3049 12.0971
374 1 H 14.4966 10.9779 12.676
375 1 H 14.7862 9.27013 12.6952
376 1 H 14.6237 9.06359 10.3422
377 1 H 14.9643 10.7546 10.0127
378 1 H 12.9066 11.1225 10.9552
379 2 C -0.247481 5.06883 2.62582
380 2 C 1.1098 5.58332 2.74089
381 4 O 1.65629 5.219 4.01264
382 1 H -0.198521 4.00015 2.88821
383 1 H -0.900783 5.60095 3.28689
384 1 H -0.54806 5.10111 1.6023
385 1 H 1.0291 6.66165 2.74786
386 1 H 1.74493 5.31907 1.88382
387 1 H 2.61349 5.23095 3.89797
388 2 C 14.3021 14.8577 11.3348
389 2 C 14.013 13.6616 12.1859
390 4 O 12.9222 12.9455 11.7311
391 1 H 15.0051 15.4949 11.8658
392 1 H 14.7298 14.6028 10.3364
393 1 H 13.375 15.412 11.1265
394 1 H 13.8943 13.9762 13.2124
395 1 H 14.8685 12.9727 12.1366
396 1 H 12.1621 13.5371 11.7561
397 2 C 1.013 11.1613 12.8602
398 2 C 2.19917 10.1723 13.0587
399 4 O 3.46891 10.7912 12.7153
400 1 H 0.892489 11.3786 11.7627
401 1 H 0.0575883 10.8179 13.2799
402 1 H 1.30155 12.097 13.3707
403 1 H 2.11263 9.21248 12.5255
404 1 H 2.16301 10.0097 14.1946
405 1 H 4.20158 10.2754 13.1042
406 2 C 4.36051 7.76596 17.3867
407 2 C 3.2674 8.29844 16.4798
408 4 O 3.18829 7.74496 15.212
409 1 H 4.38978 6.68487 17.4146
410 1 H 5.23086 7.93602 16.8019
411 1 H 4.52013 8.26327 -0.967213
412 1 H 3.47381 9.41547 16.3633
413 1 H 2.25247 8.15641 16.8862
414 1 H 2.27233 7.7608 14.8969
415 2 C 8.70928 8.22474 3.83215
416 2 C 9.12098 9.12276 4.94111
417 4 O 9.64548 10.2872 4.42403
418 1 H 8.52501 7.21097 4.12019
419 1 H 7.77848 8.54769 3.3609
420 1 H 9.49367 8.23852 3.05935
421 1 H 9.95762 8.64889 5.44523
422 1 H 8.36407 9.36617 5.71033
423 1 H 8.97542 10.8257 3.95123
424 2 C 4.69276 14.843 4.17321
425 2 C 3.832 13.9438 3.27361
426 4 O 2.50994 14.3638 3.4207
427 1 H 4.00315 15.1956 4.9336
428 1 H 5.50694 14.1951 4.60952
429 1 H 5.05216 15.7469 3.57942
430 1 H 3.9751 12.9299 3.57792
431 1 H 4.24312 14.0518 2.25608
432 1 H 1.89478 13.6531 3.33103
433 2 C -0.180836 4.24016 7.71823
434 2 C 0.536248 3.1189 7.03747
435 4 O 0.254637 3.20398 5.59443
436 1 H -1.22399 4.10599 7.50159
437 1 H -0.193179 4.27123 8.79334
438 1 H 0.121615 5.18433 7.24528
439 1 H 0.255682 2.06223 7.34851
440 1 H 1.58884 3.18327 7.12732
441 1 H 0.977157 3.55479 5.01596
442 2 C 17.3292 2.3594 -0.191436
443 2 C 16.5699 2.88577 17.8578
444 4 O 15.5644 1.94196 17.5149
445 1 H 17.7999 1.35499 -0.228353
446 1 H -1.17238 3.02231 0.124565
447 1 H 16.6741 2.47446 0.683169
448 1 H 17.2411 2.93067 16.9757
449 1 H 16.2253 3.90316 -1.25799
450 1 H 15.2776 2.1384 16.6472
ITEM: TIMESTEP
6700
ITEM: NUMBER OF ATOMS
450
ITEM: BOX BOUNDS pp pp pp
-1.2273631947131065e+00 1.8152363194713121e+01
-1.2273631947131065e+00 1.8152363194713121e+01
-1.2273631947131065e+00 1.8152363194713121e+01
ITEM: ATOMS id type element x y z
1 2 C 13.8312 0.214757 2.50621
2 2 C 13.7659 0.502586 4.0348
3 4 O 12.8505 1.54186 4.40898
4 1 H 14.2422 1.06267 1.95325
5 1 H 14.5395 -0.591297 2.35063
6 1 H 12.8557 -0.0566974 2.14382
7 1 H 14.7305 0.77439 4.44093
8 1 H 13.4507 -0.417381 4.55303
9 1 H 12.3989 1.26463 5.21403
10 2 C 13.1751 15.6806 15.4623
11 2 C 12.3435 15.4408 16.6996
12 4 O 11.4776 14.3126 16.5773
13 1 H 12.6067 15.9108 14.5421
14 1 H 13.8191 16.5422 15.5496
15 1 H 13.8066 14.8209 15.2801
16 1 H 11.7666 16.3673 16.8663
17 1 H 13.0218 15.3216 17.5277
18 1 H 12.0681 13.5469 16.591
19 2 C 13.2547 3.91837 1.09381
20 2 C 12.9299 5.41266 1.13984
21 4 O 12.0169 5.77807 2.14666
22 1 H 12.3937 3.34244 0.751284
23 1 H 14.0033 3.75608 0.377039
24 1 H 13.5216 3.54476 2.06906
25 1 H 12.564 5.76493 0.199957
26 1 H 13.8967 5.82996 1.42151
27 1 H 12.3918 5.40957 2.9704
28 2 C 0.116525 7.56678 9.99642
29 2 C -0.813488 8.65225 9.49506
30 4 O -0.09053 9.68129 8.78424
31 1 H 0.712882 8.00541 10.7792
32 1 H -0.493819 6.78793 10.4721
33 1 H 0.777122 7.18434 9.24083
34 1 H 18.0874 9.10526 10.3996
35 1 H 17.832 8.27276 8.84171
36 1 H 0.70415 9.91573 9.29698
37 2 C 1.58599 16.0774 13.7844
38 2 C 1.60304 17.507 13.3103
39 4 O 2.10286 -0.940624 13.9012
40 1 H 0.556032 15.7968 14.0837
41 1 H 1.69557 15.3785 12.9281
42 1 H 2.20998 15.9462 14.7003
43 1 H 1.04548 17.6629 12.2806
44 1 H 17.2294 17.389 0.372769
45 1 H 6.54044 3.30024 6.21599
46 2 C 7.04888 12.4006 7.61609
47 2 C 7.13352 12.0057 6.16453
48 4 O 5.82971 11.9617 5.51406
49 1 H 8.06538 12.6202 7.97859
50 1 H 6.49226 13.3306 7.67454
51 1 H 6.59263 11.6389 8.26822
52 1 H 7.63748 11.0472 5.98553
53 1 H 7.69994 12.8008 5.6645
54 1 H 5.49851 11.0661 5.6202
55 2 C 16.6638 4.6397 12.6712
56 2 C 15.5717 3.93424 13.4474
57 4 O 15.4835 4.12886 14.8034
58 1 H 17.5961 4.45255 13.1195
59 1 H 16.6422 4.11923 11.6849
60 1 H 16.5486 5.65289 12.4144
61 1 H 15.679 2.88066 13.3804
62 1 H 14.6112 4.21244 13.0576
63 1 H 15.5904 5.05774 15.0003
64 2 C 10.2561 10.5272 8.7297
65 2 C 9.29776 10.441 9.89766
66 4 O 9.77005 9.64988 11.0081
67 1 H 10.341 9.6307 8.10166
68 1 H 10.0484 11.3751 8.08395
69 1 H 11.2608 10.6402 9.11959
70 1 H 8.37141 9.94474 9.63708
71 1 H 8.99146 11.4396 10.2102
72 1 H 10.7029 9.77507 11.1365
73 2 C 4.15846 2.78418 6.91504
74 2 C 4.06656 4.24176 6.3532
75 4 O 4.1618 5.17794 7.37908
76 1 H 5.14623 2.64032 7.29826
77 1 H 3.38195 2.61914 7.67672
78 1 H 4.16859 1.99347 6.15703
79 1 H 3.09441 4.37797 5.88262
80 1 H 4.80711 4.43171 5.55294
81 1 H 4.94892 4.92859 7.88796
82 2 C 6.72926 9.90802 12.092
83 2 C 5.91841 8.79188 12.8018
84 4 O 5.0748 9.23838 13.8794
85 1 H 7.54825 10.2873 12.7182
86 1 H 7.06434 9.47306 11.1161
87 1 H 6.06017 10.7107 11.8679
88 1 H 6.58341 8.00218 13.2317
89 1 H 5.28417 8.33552 12.0148
90 1 H 4.34614 8.62706 13.9914
91 2 C 10.9687 3.63041 15.7791
92 2 C 12.2067 2.92029 16.2841
93 4 O 12.9857 2.43878 15.2072
94 1 H 10.4893 3.30371 14.8403
95 1 H 10.1687 3.65637 16.5154
96 1 H 11.2429 4.64499 15.6162
97 1 H 12.0591 2.1772 17.011
98 1 H 12.9524 3.57096 16.7875
99 1 H 13.4047 3.27383 15.0658
100 2 C 7.30384 13.9912 11.4426
101 2 C 5.91399 14.3247 11.9417
102 4 O 5.65074 15.7238 12.3555
103 1 H 8.08689 14.1656 12.1489
104 1 H 7.31247 12.9122 11.2301
105 1 H 7.53401 14.4864 10.4826
106 1 H 5.68829 13.6207 12.768
107 1 H 5.19142 14.1505 11.1325
108 1 H 5.53017 15.6492 13.2876
109 2 C 0.139578 -0.877628 6.27523
110 2 C 1.58725 -1.15308 6.76784
111 4 O 2.38731 17.2496 5.96479
112 1 H 0.111774 -0.376293 5.28796
113 1 H -0.287383 17.5024 6.08168
114 1 H -0.35613 -0.28386 7.06944
115 1 H 1.53769 17.67 7.68727
116 1 H 2.12957 -0.220629 7.00989
117 1 H 2.36538 17.5291 5.03634
118 2 C 4.66156 9.02891 9.07758
119 2 C 3.60964 10.0712 8.90924
120 4 O 2.5431 9.95578 9.88853
121 1 H 4.2152 8.06575 9.30716
122 1 H 5.35694 8.82843 8.27956
123 1 H 5.35032 9.30393 9.90091
124 1 H 3.09386 10.0388 7.95032
125 1 H 4.00366 11.113 9.02419
126 1 H 2.86575 10.3113 10.7449
127 2 C 5.80326 -1.09548 16.5183
128 2 C 4.92001 17.0349 16.3507
129 4 O 5.00898 16.4769 15.0453
130 1 H 5.61691 -0.348372 15.7589
131 1 H 5.75044 -0.582662 17.5082
132 1 H 6.82545 -1.48239 16.3773
133 1 H 3.88358 17.2807 16.5456
134 1 H 5.28596 16.3297 17.1032
135 1 H 4.59867 17.1294 14.4765
136 2 C 8.41531 12.5642 1.27022
137 2 C 7.47637 11.4707 1.77642
138 4 O 7.56482 11.4048 3.19354
139 1 H 9.42897 12.2249 1.42371
140 1 H 8.39157 12.6158 0.197703
141 1 H 8.22752 13.5218 1.76014
142 1 H 7.83334 10.5166 1.30487
143 1 H 6.45429 11.6638 1.5184
144 1 H 6.8473 11.9593 3.55847
145 2 C 8.30195 15.6521 4.67129
146 2 C 9.22058 14.3958 4.50425
147 4 O 9.64526 13.9689 5.84396
148 1 H 7.75117 15.8431 3.73148
149 1 H 7.52424 15.439 5.40771
150 1 H 8.82521 16.5537 4.89589
151 1 H 10.0722 14.6717 3.88346
152 1 H 8.68345 13.5897 3.96435
153 1 H 10.2711 13.218 5.70817
154 2 C 16.8723 -0.211891 13.9325
155 2 C 18.0464 0.682663 14.1085
156 4 O -0.801493 1.03082 12.8346
157 1 H 17.1316 -1.11103 13.3643
158 1 H 16.4617 -0.518788 14.9
159 1 H 16.1094 0.284721 13.3486
160 1 H -0.513415 0.286761 14.7233
161 1 H 17.7642 1.60321 14.6211
162 1 H 0.0341767 1.4788 12.9667
163 2 C 16.3249 9.59056 6.23848
164 2 C 15.1395 8.76849 6.63666
165 4 O 14.2115 8.44202 5.5847
166 1 H 16.0325 10.2833 5.4562
167 1 H 16.5568 10.1662 7.14656
168 1 H 17.1356 8.98049 5.84397
169 1 H 14.5235 9.32396 7.33424
170 1 H 15.4635 7.84084 7.12813
171 1 H 13.6979 9.22017 5.35591
172 2 C 14.2452 8.70529 1.47862
173 2 C 14.0879 10.2013 1.61719
174 4 O 14.9543 10.8362 0.755138
175 1 H 13.7992 8.28612 0.60389
176 1 H 15.3206 8.52526 1.35016
177 1 H 13.9375 8.15737 2.34532
178 1 H 14.2683 10.4805 2.64933
179 1 H 13.0764 10.4818 1.27955
180 1 H 14.8276 11.7602 0.616395
181 2 C 16.8318 2.06188 3.39757
182 2 C 16.1459 3.18023 4.08024
183 4 O 17.0612 3.92272 4.85638
184 1 H 17.7398 2.48407 2.95549
185 1 H 17.0737 1.08841 3.75284
186 1 H 16.2704 1.76854 2.51173
187 1 H 15.2544 2.85072 4.64233
188 1 H 15.7533 3.83424 3.25007
189 1 H 16.996 4.86991 4.82841
190 2 C 8.11904 17.2526 7.61228
191 2 C 7.68788 -0.826922 8.28916
192 4 O 7.31879 0.0762881 7.26937
193 1 H 8.95121 17.4771 6.93318
194 1 H 8.53905 16.5841 8.3517
195 1 H 7.30454 16.7855 7.06435
196 1 H 8.50752 -0.444229 8.8741
197 1 H 6.85877 -0.952575 9.03692
198 1 H 7.48908 0.991378 7.50787
199 2 C 8.66923 -0.58147 13.0942
200 2 C 8.13091 17.6795 12.2277
201 4 O 8.54661 16.5182 12.9228
202 1 H 8.2888 0.39213 12.787
203 1 H 8.33814 -0.75748 14.1321
204 1 H 9.75455 -0.594295 13.0921
205 1 H 8.58487 17.6219 11.2444
206 1 H 7.05819 17.6716 12.001
207 1 H 7.71251 16.0736 13.0537
208 2 C 2.17867 9.78965 5.17478
209 2 C 1.07646 10.3903 4.34512
210 4 O 1.58831 10.9766 3.13596
211 1 H 2.74284 9.00203 4.70949
212 1 H 2.93531 10.5714 5.38565
213 1 H 1.81001 9.48651 6.13673
214 1 H 0.491759 11.134 4.92478
215 1 H 0.388081 9.5532 4.16807
216 1 H 2.28603 10.4102 2.78151
217 2 C -0.481311 8.19258 0.425458
218 2 C 17.7511 7.62419 -0.318627
219 4 O -1.20575 6.91903 17.8851
220 1 H 0.249304 7.38246 0.656164
221 1 H 0.070936 9.01548 -0.143178
222 1 H -0.860005 8.70014 1.29982
223 1 H 17.1112 8.46537 -0.623799
224 1 H 17.2275 6.90226 0.328553
225 1 H 17.4972 6.65534 17.2353
226 2 C 13.664 4.49738 7.19504
227 2 C 13.4048 4.93432 5.7074
228 4 O 14.3236 5.65063 4.94604
229 1 H 13.6033 5.36035 7.85502
230 1 H 12.9654 3.73428 7.51273
231 1 H 14.7107 4.1033 7.18062
232 1 H 12.4498 5.48581 5.67356
233 1 H 13.2444 3.9842 5.12728
234 1 H 14.3038 6.61906 5.11507
235 2 C -0.199189 15.6846 2.1943
236 2 C 17.8339 16.055 1.50504
237 4 O 18.0965 16.9984 0.561098
238 1 H 0.555401 15.3064 1.45003
239 1 H 0.244384 16.4821 2.77761
240 1 H -0.428901 14.8172 2.83207
241 1 H 17.1242 16.382 2.23128
242 1 H 17.5128 15.0904 1.15136
243 1 H -0.729304 3.44868 5.38339
244 2 C 14.8096 13.9953 3.47079
245 2 C 13.3452 14.0885 2.87552
246 4 O 13.3275 13.6989 1.52896
247 1 H 15.554 14.7873 3.23399
248 1 H 14.8165 13.777 4.53239
249 1 H 15.5882 13.0991 3.0262
250 1 H 12.9652 15.1575 2.95431
251 1 H 12.6246 13.6455 3.50252
252 1 H 12.9261 14.4445 1.099
253 2 C 0.918747 4.26719 16.3736
254 2 C 0.375813 5.148 15.2168
255 4 O 0.602716 6.56476 15.5157
256 1 H 0.742008 3.27188 15.9773
257 1 H 2.02147 4.40138 16.3199
258 1 H 0.494696 4.3536 17.3686
259 1 H -0.687816 4.94749 15.0444
260 1 H 0.966936 4.88542 14.3286
261 1 H 0.0672005 6.81317 16.2964
262 2 C 2.1366 -1.15336 1.0114
263 2 C 1.96732 -0.947674 2.49773
264 4 O 2.60202 17.4897 3.32557
265 1 H 2.99378 17.5117 0.827147
266 1 H 1.28923 17.6846 0.631634
267 1 H 2.29349 -0.234491 0.405309
268 1 H 0.884734 -0.956553 2.7425
269 1 H 2.40909 0.0359921 2.76697
270 1 H 2.34967 16.5751 3.13482
271 2 C 13.4696 -0.606615 -0.839201
272 2 C 14.3746 17.7935 -0.092309
273 4 O 15.7857 -1.10347 0.104503
274 1 H 13.8933 -0.366237 17.5805
275 1 H 12.5429 -1.09474 -1.00192
276 1 H 13.3629 0.329198 -0.278131
277 1 H 14.4381 16.8593 -0.669323
278 1 H 13.9008 17.5379 0.827532
279 1 H 15.9025 -0.187076 -0.271885
280 2 C 9.94099 1.94659 8.77317
281 2 C 9.2214 3.15424 8.14332
282 4 O 7.9261 2.76756 7.74392
283 1 H 10.0427 1.11408 8.05106
284 1 H 10.9642 2.19109 9.08119
285 1 H 9.40516 1.60763 9.66264
286 1 H 9.8071 3.50622 7.31528
287 1 H 9.13024 4.00728 8.79214
288 1 H 7.27856 3.38815 8.0892
289 2 C 8.33402 6.78429 9.02235
290 2 C 7.27934 6.1162 8.14794
291 4 O 6.67167 4.92314 8.67095
292 1 H 9.02854 6.02453 9.38821
293 1 H 8.86241 7.51714 8.40887
294 1 H 7.94498 7.3895 9.80714
295 1 H 7.8239 5.79473 7.21974
296 1 H 6.4191 6.66919 7.84716
297 1 H 6.4309 5.03592 9.60927
298 2 C 12.5564 12.8944 7.6059
299 2 C 12.7993 11.5478 6.86005
300 4 O 11.983 11.6524 5.66302
301 1 H 12.8365 12.7808 8.69897
302 1 H 13.1723 13.7153 7.1836
303 1 H 11.5288 13.2659 7.57452
304 1 H 12.5273 10.7384 7.48036
305 1 H 13.8476 11.5555 6.63295
306 1 H 11.3475 10.9355 5.59049
307 2 C 14.6225 6.62639 17.498
308 2 C 15.1444 7.63163 16.4424
309 4 O 16.2921 7.17439 15.7751
310 1 H 15.2388 6.25621 18.3267
311 1 H 13.7989 7.08622 -1.34786
312 1 H 14.1801 5.77174 17.0385
313 1 H 15.363 8.56771 16.9615
314 1 H 14.3498 7.81457 15.7282
315 1 H 16.5384 7.6958 15.012
316 2 C 0.561485 13.0915 6.91927
317 2 C 1.97886 13.6871 7.09325
318 4 O 1.9006 14.9706 7.71625
319 1 H -0.0905867 13.5686 6.16834
320 1 H 0.595491 12.0276 6.71934
321 1 H -0.00778096 13.2882 7.85085
322 1 H 2.50338 13.7352 6.07934
323 1 H 2.57538 13.0615 7.73209
324 1 H 1.8688 15.6483 7.0215
325 2 C 15.4919 0.346241 9.32926
326 2 C 16.9742 0.0194628 9.64129
327 4 O 17.6985 1.24256 9.85573
328 1 H 15.3988 0.692183 8.27608
329 1 H 14.8045 -0.469161 9.51769
330 1 H 15.1764 1.18621 9.94046
331 1 H 17.3694 -0.4086 8.74646
332 1 H 17.0652 -0.748709 10.3845
333 1 H 17.9234 1.25883 10.7903
334 2 C 2.48116 4.24761 10.4857
335 2 C 1.76837 3.05451 11.0435
336 4 O 1.24773 3.27066 12.3327
337 1 H 3.03954 4.01044 9.56329
338 1 H 1.84148 5.04834 10.124
339 1 H 3.13219 4.68475 11.2113
340 1 H 2.4452 2.18918 11.1689
341 1 H 0.98223 2.70392 10.3926
342 1 H 0.85561 4.16084 12.3112
343 2 C 8.5042 15.7326 16.1021
344 2 C 8.44907 14.6782 17.1745
345 4 O 7.19456 14.6666 17.8584
346 1 H 9.33281 15.6519 15.5041
347 1 H 7.6923 15.6478 15.4004
348 1 H 8.53879 16.7491 16.5048
349 1 H 9.33634 14.7899 17.8364
350 1 H 8.63679 13.6461 16.7669
351 1 H 6.70004 13.8943 17.6337
352 2 C 5.22422 4.30012 13.5348
353 2 C 6.11985 4.94159 12.4486
354 4 O 5.74913 4.60082 11.1148
355 1 H 5.22261 3.26468 13.2661
356 1 H 5.56791 4.33078 14.5665
357 1 H 4.21339 4.72881 13.4229
358 1 H 7.1444 4.54647 12.5451
359 1 H 6.21567 6.01335 12.5197
360 1 H 5.45687 3.6718 11.0321
361 2 C 11.6181 16.5446 9.75569
362 2 C 11.0314 15.3656 10.496
363 4 O 11.3023 15.3987 11.9063
364 1 H 12.6043 16.8711 10.037
365 1 H 11.6135 16.2281 8.71841
366 1 H 10.992 17.4138 9.76041
367 1 H 11.4026 14.3924 10.1353
368 1 H 9.96039 15.4375 10.3474
369 1 H 10.4877 15.6595 12.3685
370 2 C 14.9541 10.087 12.295
371 2 C 14.3096 10.2865 10.8991
372 4 O 12.8508 10.4883 10.9323
373 1 H 15.9631 10.5348 12.3849
374 1 H 14.2935 10.5545 13.0613
375 1 H 14.9847 9.03436 12.5746
376 1 H 14.4318 9.38798 10.2672
377 1 H 14.7512 11.0941 10.3464
378 1 H 12.723 11.3386 11.4088
379 2 C -0.173599 4.90173 2.39515
380 2 C 1.1609 5.75062 2.59951
381 4 O 1.77339 5.24822 3.77954
382 1 H 0.143796 3.86595 2.14569
383 1 H -0.630929 4.80356 3.36107
384 1 H -0.829826 5.28155 1.60332
385 1 H 0.910249 6.82097 2.73255
386 1 H 1.83072 5.61543 1.74734
387 1 H 1.96546 5.93631 4.42007
388 2 C 14.1228 14.9219 11.387
389 2 C 14.0207 13.6773 12.2519
390 4 O 12.7653 12.9237 12.087
391 1 H 15.1157 15.1056 10.9815
392 1 H 13.5104 14.7903 10.5181
393 1 H 13.794 15.7678 11.974
394 1 H 14.0951 14.0363 13.2844
395 1 H 14.8241 12.9789 12.0121
396 1 H 12.0155 13.4706 12.3061
397 2 C 0.9154 10.6539 12.8286
398 2 C 2.29412 10.2605 13.2564
399 4 O 3.21999 11.0392 12.531
400 1 H 0.810466 10.4849 11.7666
401 1 H 0.176568 9.98588 13.2763
402 1 H 0.668392 11.651 13.1317
403 1 H 2.43376 9.22811 12.973
404 1 H 2.33782 10.4008 14.3012
405 1 H 4.08652 10.7046 12.7305
406 2 C 4.62977 7.72513 17.08
407 2 C 3.41699 8.37912 16.547
408 4 O 3.13372 7.70121 15.2736
409 1 H 4.45742 6.69821 17.3154
410 1 H 5.46986 7.63034 16.3299
411 1 H 4.98232 8.27396 17.9796
412 1 H 3.59407 9.41575 16.3027
413 1 H 2.61209 8.43561 17.2837
414 1 H 2.30415 7.19906 15.3362
415 2 C 8.40273 8.04367 3.78836
416 2 C 9.09238 8.68978 4.96723
417 4 O 9.6258 9.97289 4.69292
418 1 H 7.66974 7.24791 4.06537
419 1 H 7.82165 8.69531 3.12465
420 1 H 9.17006 7.58885 3.16949
421 1 H 9.90599 8.05475 5.32315
422 1 H 8.43262 8.88213 5.79629
423 1 H 8.944 10.4791 4.25042
424 2 C 4.72818 15.1419 4.27571
425 2 C 3.87242 14.1001 3.52262
426 4 O 2.49947 14.537 3.46137
427 1 H 4.59811 14.978 5.30725
428 1 H 5.73046 15.0971 4.0144
429 1 H 4.29979 16.0853 3.95345
430 1 H 3.92921 13.0778 3.9893
431 1 H 4.31383 14.0422 2.53785
432 1 H 1.90447 13.883 3.13306
433 2 C -0.814593 4.19798 7.75608
434 2 C 0.287549 3.3617 7.11244
435 4 O 0.151064 3.21868 5.67409
436 1 H 17.501 3.94158 7.62749
437 1 H -0.637713 4.05064 8.83513
438 1 H -0.657309 5.24924 7.58027
439 1 H 0.474188 2.37788 7.54985
440 1 H 1.18722 3.97393 7.28678
441 1 H 0.737225 3.7317 5.10615
442 2 C 17.1995 2.3958 -0.444526
443 2 C 16.6634 2.92095 17.6387
444 4 O 15.4426 2.22 17.3258
445 1 H 17.7921 1.48189 -0.597481
446 1 H 17.8258 3.16767 0.0628552
447 1 H 16.3518 2.21235 0.217905
448 1 H 17.4381 2.74805 16.8953
449 1 H 16.5349 4.0092 17.6947
450 1 H 15.2026 2.50406 16.4379
ITEM: TIMESTEP
6800
ITEM: NUMBER OF ATOMS
450
ITEM: BOX BOUNDS pp pp pp
-1.2411909237673928e+00 1.8166190923767413e+01
-1.2411909237673928e+00 1.8166190923767413e+01
-1.2411909237673928e+00 1.8166190923767413e+01
ITEM: ATOMS id type element x y z
1 2 C 13.9547 -0.0387037 2.67775
2 2 C 13.8544 0.155572 4.11189
3 4 O 12.8317 1.20693 4.34691
4 1 H 14.0269 0.929337 2.18783
5 1 H 14.8929 -0.556699 2.42734
6 1 H 13.1096 -0.573766 2.23099
7 1 H 14.8052 0.581621 4.47318
8 1 H 13.5991 -0.68024 4.74819
9 1 H 12.8821 1.52619 5.25127
10 2 C 13.0648 15.6821 15.1867
11 2 C 12.3702 15.4386 16.4857
12 4 O 11.8195 14.1102 16.6095
13 1 H 12.4293 15.7335 14.2914
14 1 H 13.6399 16.6159 15.2362
15 1 H 13.8167 14.948 14.9532
16 1 H 11.5266 16.1199 16.5689
17 1 H 13.0082 15.6819 17.3921
18 1 H 12.562 13.4949 16.6428
19 2 C 13.0646 3.93774 1.19698
20 2 C 13.2207 5.4269 1.28563
21 4 O 12.2521 5.95257 2.18277
22 1 H 11.9816 3.77165 1.13396
23 1 H 13.4673 3.45182 0.258548
24 1 H 13.4124 3.41135 2.09327
25 1 H 13.0301 5.88769 0.283088
26 1 H 14.2525 5.7091 1.55201
27 1 H 12.6613 5.94322 3.06783
28 2 C 0.114391 7.7725 9.9772
29 2 C -0.778577 8.81648 9.34649
30 4 O -0.00300817 9.71562 8.57013
31 1 H 0.931333 8.28179 10.502
32 1 H -0.411024 7.17653 10.7096
33 1 H 0.571565 7.07693 9.24299
34 1 H 18.1422 9.38703 10.1164
35 1 H 17.8151 8.39106 8.68797
36 1 H 0.696446 10.0248 9.15339
37 2 C 1.15946 16.1532 13.993
38 2 C 1.28405 17.5772 13.5682
39 4 O 2.13449 -1.15073 14.0736
40 1 H 0.188164 15.6851 13.9069
41 1 H 1.75463 15.7242 13.2075
42 1 H 1.61257 15.898 14.9417
43 1 H 0.65623 17.9056 12.8282
44 1 H 17.3367 17.6995 0.270187
45 1 H 6.77748 3.94557 6.48284
46 2 C 6.92818 12.6034 7.61016
47 2 C 7.08554 11.9247 6.28906
48 4 O 5.91181 11.9308 5.51177
49 1 H 7.8963 12.8213 8.05851
50 1 H 6.28498 13.4701 7.47397
51 1 H 6.40326 11.9346 8.28401
52 1 H 7.54973 10.9472 6.33863
53 1 H 7.76672 12.5057 5.69624
54 1 H 5.31341 11.2186 5.73294
55 2 C 16.8016 4.4426 12.5634
56 2 C 15.5504 3.97786 13.2707
57 4 O 15.4883 4.40953 14.7287
58 1 H 17.6541 3.86786 12.9901
59 1 H 16.9199 4.37072 11.4904
60 1 H 16.8482 5.54452 12.8264
61 1 H 15.4875 2.86262 13.4031
62 1 H 14.6275 4.36899 12.8383
63 1 H 15.5941 5.37852 14.7673
64 2 C 10.4721 10.5372 8.7319
65 2 C 9.38924 10.2591 9.7053
66 4 O 9.87138 9.52856 10.8335
67 1 H 11.206 9.78471 8.6071
68 1 H 10.0111 10.7136 7.72902
69 1 H 10.9928 11.438 9.01305
70 1 H 8.61437 9.58446 9.33659
71 1 H 8.90656 11.2045 10.0184
72 1 H 10.7755 9.84962 10.9878
73 2 C 4.12683 2.76421 7.00393
74 2 C 3.93352 4.13903 6.41833
75 4 O 3.92801 5.25402 7.32973
76 1 H 5.12228 2.30842 6.83724
77 1 H 4.05126 2.81816 8.12353
78 1 H 3.32908 2.11939 6.67368
79 1 H 2.97732 4.15128 5.92816
80 1 H 4.67408 4.3373 5.67304
81 1 H 4.70239 5.12493 7.89037
82 2 C 6.81751 9.69921 12.1181
83 2 C 5.9357 8.7592 12.8637
84 4 O 5.10554 9.54818 13.7009
85 1 H 7.41285 10.2838 12.8847
86 1 H 7.52121 9.16772 11.5301
87 1 H 6.21587 10.3741 11.5076
88 1 H 6.42708 8.00463 13.4414
89 1 H 5.31412 8.23643 12.1524
90 1 H 4.35273 9.00114 13.9965
91 2 C 11.0296 3.50706 16.0084
92 2 C 12.3716 2.8793 16.2775
93 4 O 13.2962 2.81741 15.1789
94 1 H 10.2097 3.04241 15.4701
95 1 H 10.5313 3.91715 16.8792
96 1 H 11.4872 4.33419 15.4
97 1 H 12.2835 1.78251 16.5404
98 1 H 12.9542 3.34535 17.0943
99 1 H 13.4283 3.73535 15.0623
100 2 C 7.41424 14.1214 11.5911
101 2 C 5.88656 14.0833 11.846
102 4 O 5.55726 15.2849 12.4553
103 1 H 7.92433 13.9421 12.5509
104 1 H 7.75327 13.4146 10.8334
105 1 H 7.72189 15.1169 11.2431
106 1 H 5.68027 13.2489 12.5062
107 1 H 5.24877 13.9759 10.9921
108 1 H 5.34924 15.1197 13.3876
109 2 C 0.174893 -0.960598 6.35931
110 2 C 1.64349 -1.06976 6.62912
111 4 O 2.12956 17.2464 5.96175
112 1 H 0.00564303 -0.700993 5.31023
113 1 H -0.288116 17.4732 6.39598
114 1 H -0.203669 -0.18573 6.97683
115 1 H 1.8811 18.0926 7.66552
116 1 H 2.16281 -0.132695 6.44959
117 1 H 2.23227 17.4671 5.01066
118 2 C 4.66188 9.14109 9.09451
119 2 C 3.53916 10.1093 8.83285
120 4 O 2.60558 10.2767 9.89687
121 1 H 4.3741 8.0796 8.99746
122 1 H 5.41993 9.31568 8.28923
123 1 H 5.20393 9.30572 10.0426
124 1 H 2.94601 9.75632 8.01322
125 1 H 3.84926 11.0732 8.52388
126 1 H 3.01423 10.6203 10.6874
127 2 C 6.00463 -1.25568 16.3653
128 2 C 4.89676 17.1095 16.3521
129 4 O 4.79737 16.4829 15.0595
130 1 H 5.66007 -0.260362 15.9716
131 1 H 6.40756 -1.09519 17.3719
132 1 H 6.80253 17.8479 15.6894
133 1 H 3.96189 17.5703 16.718
134 1 H 5.29738 16.3681 16.9869
135 1 H 4.42791 17.071 14.3938
136 2 C 8.3728 12.3951 1.18239
137 2 C 7.56207 11.4034 1.96835
138 4 O 7.82341 11.4006 3.35218
139 1 H 9.45311 12.25 1.24034
140 1 H 8.13067 12.3043 0.110415
141 1 H 8.0703 13.3857 1.54658
142 1 H 7.73095 10.4054 1.54058
143 1 H 6.50336 11.6466 1.78225
144 1 H 7.18485 11.9486 3.79858
145 2 C 8.40684 15.5604 4.60576
146 2 C 9.34765 14.5076 4.30362
147 4 O 9.90472 14.0187 5.47501
148 1 H 7.99133 16.0768 3.74503
149 1 H 7.58987 15.1449 5.24132
150 1 H 8.91563 16.4118 5.12222
151 1 H 10.1707 14.819 3.64928
152 1 H 8.86529 13.6498 3.80222
153 1 H 10.5144 13.3429 5.19998
154 2 C 16.8335 -0.305916 13.772
155 2 C 17.9228 0.730955 13.9142
156 4 O -0.656221 0.842698 12.7267
157 1 H 17.2397 -1.25999 13.4346
158 1 H 16.3592 -0.42609 14.751
159 1 H 16.0259 -0.00303176 13.1152
160 1 H -0.836266 0.52221 14.7671
161 1 H 17.4787 1.72335 14.123
162 1 H 0.0549576 1.47971 12.888
163 2 C 16.4452 9.20599 6.253
164 2 C 15.0238 8.89012 6.75955
165 4 O 14.2387 8.35721 5.68359
166 1 H 16.3031 9.979 5.51277
167 1 H 17.1066 9.5458 7.04308
168 1 H 16.8581 8.33141 5.76034
169 1 H 14.492 9.735 7.1335
170 1 H 15.0812 8.18154 7.58057
171 1 H 13.3554 8.09112 5.939
172 2 C 14.3374 8.68982 0.873836
173 2 C 14.1251 10.1516 1.13123
174 4 O 15.3323 10.8049 0.418094
175 1 H 14.7573 8.55674 -0.14865
176 1 H 15.1032 8.32136 1.56962
177 1 H 13.4663 8.00395 1.02555
178 1 H 13.992 10.5017 2.18155
179 1 H 13.2687 10.5335 0.567306
180 1 H 15.4479 11.777 0.484907
181 2 C 16.8542 2.1344 3.36351
182 2 C 15.9682 3.08016 4.13889
183 4 O 16.8126 3.83296 5.03842
184 1 H 17.4454 2.72129 2.64616
185 1 H 17.6241 1.68092 4.0643
186 1 H 16.4963 1.32775 2.7404
187 1 H 15.1404 2.54575 4.58614
188 1 H 15.483 3.77276 3.50033
189 1 H 16.3211 4.54177 5.50647
190 2 C 7.84193 17.215 7.81568
191 2 C 7.52824 -0.917239 8.5195
192 4 O 7.18512 -0.0126827 7.4842
193 1 H 8.71695 17.3143 7.17667
194 1 H 8.02975 16.4387 8.55371
195 1 H 7.09964 17.0349 7.03468
196 1 H 8.40417 -0.555673 9.09815
197 1 H 6.67374 -1.06961 9.15898
198 1 H 7.40087 0.896262 7.75761
199 2 C 8.7912 -0.50862 13.0046
200 2 C 8.17972 17.5816 12.4523
201 4 O 8.67836 16.3764 13.1295
202 1 H 8.5738 0.207384 12.21
203 1 H 8.32044 -0.151425 13.9352
204 1 H 9.87898 -0.674013 13.088
205 1 H 8.54321 17.5084 11.3894
206 1 H 7.09074 17.6321 12.4223
207 1 H 7.99673 16.2543 13.7551
208 2 C 2.20502 9.70807 5.0654
209 2 C 1.21901 10.3239 4.04922
210 4 O 1.73194 10.8958 2.84619
211 1 H 2.97959 9.01607 4.70002
212 1 H 2.89573 10.4604 5.43402
213 1 H 1.61369 9.31048 5.90957
214 1 H 0.689077 11.1321 4.57627
215 1 H 0.554434 9.4988 3.83766
216 1 H 2.14718 10.2506 2.26216
217 2 C -0.329661 8.40288 0.519305
218 2 C 17.8462 8.04307 -0.349158
219 4 O -1.25158 7.03883 18.0845
220 1 H -0.108797 7.63095 1.22024
221 1 H 0.488683 8.53074 -0.144393
222 1 H -0.48325 9.34373 1.04855
223 1 H 17.5103 8.97631 -0.805377
224 1 H 17.1113 7.60794 0.301602
225 1 H 17.5518 6.82325 17.3793
226 2 C 14.1068 4.98973 7.13781
227 2 C 13.519 4.87502 5.75497
228 4 O 14.3942 5.50737 4.8567
229 1 H 14.5708 5.95089 7.19788
230 1 H 13.316 4.76313 7.88246
231 1 H 14.9183 4.2891 7.27188
232 1 H 12.5424 5.34868 5.7877
233 1 H 13.3815 3.81331 5.46955
234 1 H 14.5586 6.39739 5.14933
235 2 C -0.376696 15.8454 2.25653
236 2 C 17.8507 16.4811 1.56682
237 4 O -1.22525 17.1984 0.372852
238 1 H 0.22593 15.2944 1.57853
239 1 H 0.227684 16.6088 2.75892
240 1 H -0.645326 15.1999 3.15101
241 1 H 17.2929 17.0337 2.35629
242 1 H 17.1675 15.6033 1.29759
243 1 H -0.630896 3.49119 5.32189
244 2 C 14.777 13.8456 3.42812
245 2 C 13.4105 14.1937 2.94185
246 4 O 13.149 13.6206 1.58452
247 1 H 15.5897 14.1848 2.80516
248 1 H 14.9965 14.3051 4.37201
249 1 H 14.9367 12.8715 3.3407
250 1 H 13.0945 15.2096 3.19515
251 1 H 12.7713 13.4804 3.59444
252 1 H 12.2265 13.4093 1.73093
253 2 C 0.884013 4.17874 16.2695
254 2 C 0.264775 5.35706 15.4495
255 4 O 0.657845 6.63773 15.8837
256 1 H 0.388852 3.25648 16.004
257 1 H 1.93391 4.06981 15.9623
258 1 H 0.729639 4.35008 17.3422
259 1 H -0.803297 5.24718 15.3985
260 1 H 0.6386 5.25442 14.4301
261 1 H 0.440303 6.92321 16.7774
262 2 C 2.08187 -1.11423 0.902828
263 2 C 2.1688 -0.617183 2.31568
264 4 O 2.4526 17.7632 3.33067
265 1 H 2.9629 17.8613 0.461236
266 1 H 1.29291 17.5853 0.741096
267 1 H 1.74126 -0.238748 0.395244
268 1 H 1.28808 -0.0730508 2.63016
269 1 H 2.94126 0.135539 2.34577
270 1 H 2.32465 16.9393 2.85918
271 2 C 13.3239 -1.0433 -0.956278
272 2 C 14.3733 17.5555 -0.145196
273 4 O 15.4565 -1.10367 0.271162
274 1 H 13.7245 -0.800775 17.4618
275 1 H 12.4197 17.7685 -1.14664
276 1 H 13.0263 -0.0894224 -0.479275
277 1 H 14.7489 16.7961 -0.82291
278 1 H 13.8509 17.1425 0.70884
279 1 H 15.6326 -0.289921 -0.231366
280 2 C 10.0097 1.84707 8.85417
281 2 C 9.33346 2.93143 8.1689
282 4 O 7.97678 2.65074 7.84876
283 1 H 9.97388 0.87359 8.37976
284 1 H 11.0296 2.16409 9.03285
285 1 H 9.59665 1.68917 9.84233
286 1 H 9.92377 3.2239 7.27814
287 1 H 9.35655 3.82841 8.78707
288 1 H 7.361 3.25033 8.31621
289 2 C 8.33524 6.49319 8.86319
290 2 C 7.25863 5.97142 7.9766
291 4 O 6.47247 4.94003 8.62504
292 1 H 9.05006 5.79886 9.22257
293 1 H 8.85133 7.31698 8.38744
294 1 H 7.78977 7.00092 9.67347
295 1 H 7.6744 5.48461 7.11708
296 1 H 6.48914 6.66088 7.61212
297 1 H 6.3087 5.16241 9.57203
298 2 C 12.4951 13.1149 7.67252
299 2 C 12.8698 11.9652 6.77115
300 4 O 12.0214 11.8218 5.61972
301 1 H 13.2892 13.3423 8.37262
302 1 H 12.3692 14.0446 7.14163
303 1 H 11.6046 12.9906 8.27459
304 1 H 12.8625 11.0361 7.3556
305 1 H 13.9157 12.1908 6.46672
306 1 H 11.7977 10.8801 5.52565
307 2 C 14.9063 6.61967 17.3639
308 2 C 15.2913 7.76616 16.5042
309 4 O 16.3918 7.23442 15.6435
310 1 H 15.6093 6.38411 18.168
311 1 H 13.9395 6.70047 17.8688
312 1 H 14.8999 5.73812 16.6916
313 1 H 15.7347 8.53687 17.1477
314 1 H 14.4826 8.1363 15.862
315 1 H 16.8088 7.98913 15.256
316 2 C 0.364044 13.3092 6.91525
317 2 C 1.81044 13.6017 7.26489
318 4 O 1.99508 14.9954 7.50355
319 1 H 0.0588808 13.8777 6.02138
320 1 H 0.187251 12.2408 6.73561
321 1 H -0.230378 13.5909 7.76536
322 1 H 2.42226 13.2289 6.49717
323 1 H 2.05921 13.102 8.22611
324 1 H 1.72133 15.495 6.73281
325 2 C 15.4906 0.33904 9.38644
326 2 C 16.9494 0.233215 9.79909
327 4 O 17.6066 1.46452 9.91106
328 1 H 15.4903 0.917111 8.47382
329 1 H 15.1284 -0.649268 9.14318
330 1 H 14.7445 0.764109 10.0618
331 1 H 17.4186 -0.468892 9.06276
332 1 H 17.022 -0.370299 10.7512
333 1 H 17.9712 1.44118 10.8315
334 2 C 2.48255 3.76607 10.437
335 2 C 1.78145 2.65598 11.1558
336 4 O 0.927283 3.21144 12.1721
337 1 H 3.31307 3.46436 9.75272
338 1 H 1.7805 4.42195 9.87289
339 1 H 2.94747 4.42929 11.1836
340 1 H 2.48724 2.01351 11.7258
341 1 H 1.16813 2.01526 10.4938
342 1 H 0.280544 3.78059 11.772
343 2 C 8.70207 15.8653 16.1972
344 2 C 8.62465 14.8942 17.3199
345 4 O 7.26896 14.6187 17.7339
346 1 H 9.53176 15.6811 15.4486
347 1 H 7.83886 15.8002 15.5118
348 1 H 8.78596 17.0087 16.4132
349 1 H 9.23371 15.2187 18.2166
350 1 H 9.01486 13.986 17.0084
351 1 H 6.76389 14.3921 16.9536
352 2 C 5.08175 4.06664 13.4859
353 2 C 6.00075 4.81339 12.5075
354 4 O 5.48775 4.61034 11.1674
355 1 H 5.26463 2.98961 13.3346
356 1 H 5.43542 4.2613 14.5221
357 1 H 4.0621 4.35425 13.4036
358 1 H 7.01933 4.41192 12.5443
359 1 H 5.97931 5.87698 12.6825
360 1 H 5.44786 3.66717 10.9694
361 2 C 11.4411 16.6274 9.99815
362 2 C 10.9622 15.3591 10.6345
363 4 O 11.0848 15.4011 12.0811
364 1 H 12.4334 16.823 10.4214
365 1 H 11.4892 16.5983 8.9116
366 1 H 10.8683 17.5183 10.3004
367 1 H 11.5541 14.5069 10.3006
368 1 H 9.90888 15.1252 10.379
369 1 H 10.2579 15.6869 12.469
370 2 C 14.7553 9.9794 12.2977
371 2 C 14.0492 10.4239 11.0383
372 4 O 12.6656 10.5869 11.2821
373 1 H 15.733 9.5654 12.038
374 1 H 14.9624 10.7831 12.9888
375 1 H 14.1121 9.22258 12.7621
376 1 H 14.1704 9.67363 10.2505
377 1 H 14.5182 11.3653 10.6349
378 1 H 12.5515 11.3512 11.8508
379 2 C 0.127549 4.86156 1.99841
380 2 C 1.05109 5.81884 2.68922
381 4 O 1.77568 5.12281 3.77308
382 1 H 0.639485 3.94146 1.87983
383 1 H -0.812466 4.682 2.55336
384 1 H -0.088696 5.33634 1.02381
385 1 H 0.550105 6.71004 3.0162
386 1 H 1.7769 6.06009 1.9272
387 1 H 2.4901 5.67583 4.10393
388 2 C 14.3013 14.8137 11.4281
389 2 C 14.0805 13.5132 12.3439
390 4 O 12.6978 13.2615 12.5815
391 1 H 15.363 15.1282 11.533
392 1 H 14.1919 14.6399 10.3723
393 1 H 13.7067 15.6545 11.7819
394 1 H 14.6443 13.6591 13.2773
395 1 H 14.5244 12.6581 11.879
396 1 H 12.1391 14.0731 12.663
397 2 C 0.726682 10.2458 12.7823
398 2 C 2.13235 10.4114 13.3095
399 4 O 2.99585 11.0837 12.402
400 1 H 0.762418 9.71634 11.8541
401 1 H 0.189861 9.58017 13.4612
402 1 H 0.129653 11.1583 12.6617
403 1 H 2.48259 9.36087 13.3727
404 1 H 2.08846 10.8337 14.3417
405 1 H 3.91618 10.7882 12.6115
406 2 C 4.98287 7.68726 16.882
407 2 C 3.6154 8.32346 16.4741
408 4 O 3.22384 7.73254 15.2152
409 1 H 4.83596 6.60915 17.1524
410 1 H 5.79677 7.80968 16.1854
411 1 H 5.28234 8.13152 17.8028
412 1 H 3.6328 9.42338 16.3267
413 1 H 2.9804 8.18779 17.3317
414 1 H 2.53547 7.05892 15.3948
415 2 C 8.21765 7.91883 3.79952
416 2 C 8.90816 8.36099 5.08706
417 4 O 9.7355 9.57871 4.93342
418 1 H 7.90217 6.87687 3.88064
419 1 H 7.33519 8.50999 3.60336
420 1 H 8.84297 7.96277 2.93253
421 1 H 9.6037 7.6208 5.50527
422 1 H 8.16866 8.55707 5.88925
423 1 H 9.16686 10.2412 4.48303
424 2 C 4.73489 15.2707 4.41573
425 2 C 3.89476 14.2728 3.70137
426 4 O 2.51686 14.6424 3.54577
427 1 H 4.48538 15.2329 5.53079
428 1 H 5.76301 14.9364 4.28901
429 1 H 4.6545 16.252 3.99533
430 1 H 3.87792 13.3617 4.22556
431 1 H 4.36798 14.1112 2.70409
432 1 H 1.93384 13.9027 3.31756
433 2 C -1.26033 4.05103 7.77244
434 2 C 0.0834992 3.54976 7.25963
435 4 O 0.201751 3.61231 5.78319
436 1 H 17.3873 3.24019 7.64292
437 1 H -1.17774 4.37853 8.8099
438 1 H 17.793 4.93284 7.22707
439 1 H 0.263035 2.56757 7.63845
440 1 H 0.904277 4.23127 7.65875
441 1 H 0.55257 4.445 5.55701
442 2 C 17.0577 2.47818 -0.62527
443 2 C 16.6436 3.03181 17.4135
444 4 O 15.4096 2.41729 17.1139
445 1 H 16.8323 1.43546 -0.721186
446 1 H 18.1275 2.60528 -0.557576
447 1 H 16.4822 2.80523 0.234176
448 1 H 17.4847 2.83655 16.7177
449 1 H 16.4648 4.11171 17.4466
450 1 H 14.9796 2.7365 16.2728
ITEM: TIMESTEP
6900
ITEM: NUMBER OF ATOMS
450
ITEM: BOX BOUNDS pp pp pp
-1.2441248988455857e+00 1.8169124898845617e+01
-1.2441248988455857e+00 1.8169124898845617e+01
-1.2441248988455857e+00 1.8169124898845617e+01
ITEM: ATOMS id type element x y z
1 2 C 14.0125 -0.314066 2.89963
2 2 C 13.7325 -0.164837 4.37757
3 4 O 12.8949 0.930533 4.48043
4 1 H 14.3842 0.593273 2.44331
5 1 H 14.7512 -1.10685 2.69072
6 1 H 13.1147 -0.516466 2.29877
7 1 H 14.6724 0.0690609 4.86752
8 1 H 13.3239 -1.02411 4.90847
9 1 H 12.172 0.892613 5.09397
10 2 C 12.894 15.7083 14.9722
11 2 C 12.5302 15.336 16.401
12 4 O 12.1541 13.9784 16.5324
13 1 H 12.2737 15.1372 14.3292
14 1 H 12.8175 16.774 14.7169
15 1 H 13.9141 15.4531 14.6533
16 1 H 11.6588 15.895 16.7349
17 1 H 13.2975 15.4305 17.1308
18 1 H 12.0495 13.6174 15.654
19 2 C 12.8498 3.88408 1.32108
20 2 C 13.3879 5.34203 1.40943
21 4 O 12.7793 6.15575 2.39773
22 1 H 11.9173 3.80758 0.794412
23 1 H 13.5687 3.27116 0.778383
24 1 H 12.7631 3.3632 2.26878
25 1 H 13.0443 5.8483 0.511704
26 1 H 14.462 5.38736 1.32545
27 1 H 12.9047 5.80888 3.27316
28 2 C 0.132279 7.77302 9.83879
29 2 C -0.522645 9.05379 9.34095
30 4 O 0.0830163 9.71444 8.26271
31 1 H 1.14572 7.93605 10.2158
32 1 H -0.407766 7.26039 10.6364
33 1 H 0.204255 7.02688 9.03246
34 1 H -0.745792 9.79384 10.1329
35 1 H 17.9054 8.79417 8.96667
36 1 H 0.920849 10.0709 8.61075
37 2 C 0.783428 16.185 14.0923
38 2 C 1.09561 17.6677 14.0426
39 4 O 2.22789 18.0629 14.1639
40 1 H -0.2111 15.9601 13.7069
41 1 H 1.69329 15.7761 13.5668
42 1 H 0.935175 15.7114 15.0604
43 1 H 0.291609 -0.967552 13.7002
44 1 H 17.6395 18.0207 0.0867219
45 1 H 6.21324 4.24445 6.31036
46 2 C 6.67349 12.8182 7.70834
47 2 C 7.19692 12.0074 6.51177
48 4 O 6.14793 11.7438 5.50931
49 1 H 7.40419 12.6767 8.49302
50 1 H 6.57523 13.8772 7.44574
51 1 H 5.69527 12.4752 8.06621
52 1 H 7.49787 11.0093 6.86778
53 1 H 8.06101 12.4636 6.03305
54 1 H 5.36063 12.0675 5.95113
55 2 C 16.9936 4.24307 12.5978
56 2 C 15.5648 4.22532 13.1491
57 4 O 15.6439 4.76785 14.4637
58 1 H 17.8039 3.71905 13.1436
59 1 H 16.9964 3.61681 11.7245
60 1 H 17.2532 5.2332 12.2688
61 1 H 15.1385 3.23707 13.1696
62 1 H 14.8571 4.7916 12.5374
63 1 H 16.2537 5.51447 14.4295
64 2 C 10.5959 10.4392 8.57943
65 2 C 9.47866 9.93228 9.52858
66 4 O 10.0384 9.38889 10.7267
67 1 H 10.917 9.56567 7.97368
68 1 H 10.2768 11.2192 7.89312
69 1 H 11.4228 10.8747 9.15612
70 1 H 8.85399 9.13652 9.1151
71 1 H 8.84176 10.7602 9.81883
72 1 H 10.6732 10.0684 11.0086
73 2 C 4.13262 2.71345 6.98879
74 2 C 3.58083 4.02991 6.40408
75 4 O 3.81729 5.15327 7.2673
76 1 H 5.03053 2.33079 6.53207
77 1 H 4.48474 2.80122 7.99377
78 1 H 3.30906 2.01659 7.00466
79 1 H 2.49578 3.99196 6.25427
80 1 H 4.07061 4.23998 5.41238
81 1 H 4.72616 5.08567 7.59456
82 2 C 7.0188 9.58287 12.2513
83 2 C 5.90087 8.81951 12.9025
84 4 O 5.0285 9.78156 13.5625
85 1 H 7.41897 10.2729 12.9553
86 1 H 7.8345 8.92998 12.0746
87 1 H 6.73463 10.1291 11.3197
88 1 H 6.27059 8.12341 13.677
89 1 H 5.32689 8.19134 12.166
90 1 H 4.36175 9.26284 14.0184
91 2 C 11.17 3.43992 16.1427
92 2 C 12.6077 2.88749 16.3531
93 4 O 13.3664 3.14048 15.1802
94 1 H 10.6929 2.89549 15.3151
95 1 H 10.649 3.10455 17.0768
96 1 H 11.1324 4.53592 16.0903
97 1 H 12.4168 1.81018 16.2731
98 1 H 13.1471 3.12846 17.2256
99 1 H 13.73 4.04763 15.385
100 2 C 7.39169 13.8682 11.5677
101 2 C 5.9106 13.8615 11.7496
102 4 O 5.45319 14.908 12.6491
103 1 H 7.86766 13.7319 12.5525
104 1 H 7.68168 13.058 10.9288
105 1 H 7.74695 14.7789 11.1497
106 1 H 5.59392 12.8678 12.112
107 1 H 5.31617 14.0368 10.8315
108 1 H 5.40612 14.5835 13.5784
109 2 C 0.0573574 -0.833165 6.45775
110 2 C 1.58422 -1.06851 6.61725
111 4 O 2.11675 17.2084 5.91732
112 1 H -0.355343 18.195 5.51341
113 1 H -0.470583 18.0847 7.29408
114 1 H -0.201178 0.27059 6.4369
115 1 H 1.9548 -1.02117 7.65061
116 1 H 2.05246 -0.233331 6.07249
117 1 H 2.0318 17.4576 4.98041
118 2 C 4.54383 9.28586 9.09296
119 2 C 3.51765 10.3635 8.683
120 4 O 2.40196 10.2295 9.53215
121 1 H 4.02484 8.33431 9.1687
122 1 H 5.32147 9.24583 8.33974
123 1 H 4.92553 9.51529 10.056
124 1 H 3.11447 10.1318 7.67835
125 1 H 3.8307 11.4633 8.65935
126 1 H 2.6552 10.5152 10.4366
127 2 C 6.02953 18.1475 16.1049
128 2 C 4.98954 17.0049 16.2613
129 4 O 4.44108 16.6237 15.023
130 1 H 5.63563 -0.38877 15.6183
131 1 H 6.32041 -0.999734 17.0839
132 1 H 6.9212 17.8961 15.574
133 1 H 4.27079 17.3816 16.9909
134 1 H 5.53733 16.2003 16.7744
135 1 H 3.70962 17.2222 14.8034
136 2 C 8.29902 12.2294 1.20583
137 2 C 7.59587 11.2126 2.12862
138 4 O 8.13499 11.317 3.46828
139 1 H 9.36283 12.333 1.43887
140 1 H 8.06119 12.1498 0.143921
141 1 H 7.88597 13.1857 1.49235
142 1 H 7.71325 10.2108 1.7613
143 1 H 6.51131 11.4091 2.11348
144 1 H 7.43723 11.2634 4.11735
145 2 C 8.59349 15.536 4.52191
146 2 C 9.6484 14.4904 4.02425
147 4 O 10.2403 14.0456 5.24043
148 1 H 8.08117 15.9436 3.68191
149 1 H 7.88319 15.162 5.21487
150 1 H 9.03648 16.4355 4.96821
151 1 H 10.4607 14.8771 3.38573
152 1 H 9.21611 13.641 3.54765
153 1 H 10.9692 13.4284 5.11659
154 2 C 16.8699 -0.284788 13.6109
155 2 C 17.8956 0.857689 13.7094
156 4 O -0.744715 0.758825 12.5323
157 1 H 17.3718 -1.23501 13.7544
158 1 H 16.092 -0.148383 14.3564
159 1 H 16.3375 -0.246635 12.643
160 1 H -0.871419 0.672033 14.5722
161 1 H 17.4131 1.81286 13.7941
162 1 H -0.0983824 1.4849 12.5562
163 2 C 16.4556 8.78524 6.16845
164 2 C 15.0909 8.94139 6.7501
165 4 O 14.1551 8.14018 5.96759
166 1 H 16.5048 9.34499 5.21795
167 1 H 17.2362 9.13382 6.83729
168 1 H 16.6523 7.70928 6.05082
169 1 H 14.6864 9.98124 6.80644
170 1 H 15.1211 8.58327 7.79767
171 1 H 13.4243 8.67808 5.63851
172 2 C 14.3337 8.70743 0.404791
173 2 C 14.3885 10.1986 0.423084
174 4 O 15.5852 10.8543 0.282631
175 1 H 14.7447 8.33067 -0.513796
176 1 H 14.7174 8.21234 1.26594
177 1 H 13.2755 8.46782 0.341348
178 1 H 13.9606 10.4971 1.37747
179 1 H 13.6554 10.5604 -0.292578
180 1 H 15.4378 11.817 0.359773
181 2 C 17.0419 2.14567 3.29998
182 2 C 16.0399 2.87719 4.15024
183 4 O 16.6394 3.8268 5.04198
184 1 H 17.6644 2.64265 2.57083
185 1 H 17.6903 1.61159 4.00022
186 1 H 16.4377 1.45211 2.71641
187 1 H 15.5352 2.0066 4.59599
188 1 H 15.3198 3.46283 3.55485
189 1 H 15.9523 4.49039 5.23442
190 2 C 7.59882 16.9547 8.24427
191 2 C 7.28955 -0.994701 8.69681
192 4 O 7.00187 -0.0681524 7.6421
193 1 H 8.48702 16.848 7.60999
194 1 H 7.67942 16.311 9.1359
195 1 H 6.7829 16.6404 7.58714
196 1 H 8.12098 -0.622934 9.31709
197 1 H 6.40321 -1.11074 9.35873
198 1 H 7.3009 0.785071 7.98727
199 2 C 8.84867 -0.42502 12.8154
200 2 C 8.26936 17.5779 12.4906
201 4 O 8.79154 16.6349 13.3795
202 1 H 8.34104 0.342343 12.2599
203 1 H 8.63486 -0.307228 13.842
204 1 H 9.91773 -0.453703 12.6528
205 1 H 8.63538 17.3451 11.5204
206 1 H 7.18695 17.7099 12.5591
207 1 H 8.27266 15.8668 13.111
208 2 C 2.20065 9.79813 4.81423
209 2 C 1.21032 10.1866 3.7406
210 4 O 2.02226 10.8321 2.76823
211 1 H 2.89925 9.02841 4.47837
212 1 H 2.84139 10.6609 5.01782
213 1 H 1.75369 9.46027 5.74658
214 1 H 0.506513 10.8839 4.14098
215 1 H 0.66829 9.27807 3.42099
216 1 H 1.85146 10.6383 1.84782
217 2 C -0.242462 8.68655 0.463689
218 2 C 18.1105 8.44457 -0.526207
219 4 O -1.14769 7.18001 -1.10585
220 1 H -0.202234 7.75165 1.00901
221 1 H 0.695004 8.85316 -0.0621471
222 1 H -0.538809 9.4189 1.25358
223 1 H 18.1104 9.26038 18.1538
224 1 H 17.1314 8.56471 -0.0326235
225 1 H 17.8145 7.08007 17.4653
226 2 C 14.5103 5.30757 7.1248
227 2 C 13.6447 5.1114 5.84481
228 4 O 14.3879 5.60772 4.69355
229 1 H 14.5846 6.39105 7.30651
230 1 H 13.968 4.76051 7.88566
231 1 H 15.4835 4.86818 7.09476
232 1 H 12.6917 5.61665 6.08764
233 1 H 13.4196 4.09369 5.6937
234 1 H 14.5246 6.56338 4.88123
235 2 C -0.600777 16.049 2.28266
236 2 C 17.6211 16.8085 1.6789
237 4 O -1.21521 17.3482 0.439246
238 1 H -0.166499 15.3251 1.58094
239 1 H 0.207304 16.7465 2.49963
240 1 H -0.729888 15.5872 3.22998
241 1 H 17.3828 17.6244 2.39799
242 1 H 16.7516 16.2944 1.42837
243 1 H -1.19963 3.9267 5.62289
244 2 C 14.7515 13.6859 3.29627
245 2 C 13.3311 14.1786 2.97788
246 4 O 12.9828 13.5211 1.77658
247 1 H 15.5917 13.3896 2.61986
248 1 H 15.2631 14.4523 4.03905
249 1 H 14.45 12.6025 3.8185
250 1 H 13.3545 15.2694 2.67075
251 1 H 12.7829 13.821 3.7958
252 1 H 13.335 12.6174 1.9117
253 2 C 0.774949 4.24526 16.1404
254 2 C 0.100072 5.51489 15.7055
255 4 O 0.697605 6.65299 16.2821
256 1 H 0.653544 3.37188 15.4823
257 1 H 1.81767 4.45538 16.2178
258 1 H 0.41442 4.09513 17.1521
259 1 H -0.988442 5.45033 16.0447
260 1 H 0.0830462 5.63635 14.612
261 1 H 0.609736 6.67981 17.229
262 2 C 2.03612 -0.954662 0.752934
263 2 C 2.38454 -0.411874 2.13992
264 4 O 2.35359 17.9675 3.09332
265 1 H 2.95047 18.084 0.289348
266 1 H 1.315 17.5963 0.914558
267 1 H 1.50148 -0.287557 0.071756
268 1 H 1.73865 0.327792 2.61252
269 1 H 3.3878 0.0616993 2.09048
270 1 H 2.7919 17.1554 2.78167
271 2 C 13.2342 18.0319 -0.944742
272 2 C 14.3684 17.3026 -0.304052
273 4 O 15.3277 -1.09318 -0.0097626
274 1 H 13.5715 -0.778363 17.6059
275 1 H 12.4058 17.3816 18.084
276 1 H 12.6892 -0.715158 -0.302682
277 1 H 14.853 16.5831 -0.975477
278 1 H 13.9972 16.7478 0.611789
279 1 H 15.0451 -0.283786 -0.355513
280 2 C 10.1551 1.64171 8.91313
281 2 C 9.46037 2.80886 8.12865
282 4 O 8.0307 2.58189 8.2305
283 1 H 9.98104 0.666743 8.46764
284 1 H 11.2178 1.76124 9.15786
285 1 H 9.64263 1.52932 9.88562
286 1 H 9.81314 2.78505 7.08511
287 1 H 9.66841 3.75689 8.62334
288 1 H 7.49842 3.38744 8.23086
289 2 C 8.23434 6.50031 8.88176
290 2 C 7.25329 6.00477 7.85705
291 4 O 6.4786 4.89397 8.38577
292 1 H 8.90647 5.77409 9.35859
293 1 H 8.90619 7.22395 8.39659
294 1 H 7.60624 7.01347 9.66534
295 1 H 7.65709 5.67757 6.93628
296 1 H 6.46185 6.71854 7.6043
297 1 H 6.41533 5.05093 9.3233
298 2 C 12.5857 13.5938 7.43071
299 2 C 12.8352 12.3431 6.66037
300 4 O 11.9339 12.1026 5.60676
301 1 H 13.2047 13.7646 8.29192
302 1 H 12.6472 14.5284 6.88922
303 1 H 11.5767 13.5651 7.85227
304 1 H 12.8432 11.4303 7.29049
305 1 H 13.829 12.3417 6.24069
306 1 H 11.2625 11.461 5.89526
307 2 C 14.9247 6.53056 17.2107
308 2 C 15.4449 7.74033 16.3632
309 4 O 16.5452 7.24208 15.6654
310 1 H 15.7368 6.22394 17.835
311 1 H 14.0929 6.91529 17.8026
312 1 H 14.5521 5.66255 16.6379
313 1 H 15.6813 8.53305 17.0552
314 1 H 14.6824 8.14019 15.6874
315 1 H 16.9135 7.92012 15.1094
316 2 C 0.181025 13.4941 6.8783
317 2 C 1.61836 13.5777 7.36741
318 4 O 2.18749 14.8341 7.52668
319 1 H 0.184847 13.6685 5.81878
320 1 H -0.190458 12.4903 7.10895
321 1 H -0.440539 14.1697 7.46181
322 1 H 2.19434 12.8928 6.64638
323 1 H 1.65888 13.121 8.34411
324 1 H 2.06227 15.3572 6.70886
325 2 C 15.5725 0.459343 9.39549
326 2 C 16.9945 0.333679 9.84006
327 4 O 17.454 1.60747 10.3155
328 1 H 15.4407 1.2467 8.6635
329 1 H 15.132 -0.478566 8.95465
330 1 H 14.8877 0.715724 10.2211
331 1 H 17.6203 0.0176349 9.03424
332 1 H 17.0405 -0.358029 10.6581
333 1 H 17.9269 1.43525 11.1166
334 2 C 2.36009 3.36252 10.4119
335 2 C 1.7207 2.40557 11.4095
336 4 O 0.468795 2.96301 11.9679
337 1 H 3.19598 2.84169 10.0225
338 1 H 1.69807 3.64461 9.63095
339 1 H 2.7781 4.24544 10.8787
340 1 H 2.37893 2.25764 12.2222
341 1 H 1.50882 1.44847 10.9581
342 1 H 0.0165467 3.50224 11.336
343 2 C 8.86919 15.8901 16.3634
344 2 C 8.76916 14.882 17.4639
345 4 O 7.41284 14.6168 17.7702
346 1 H 9.87141 16.1154 15.9625
347 1 H 8.31078 15.5979 15.5225
348 1 H 8.49586 16.8177 16.5677
349 1 H 9.13728 15.2421 -1.05455
350 1 H 9.22832 13.8292 17.1905
351 1 H 6.85371 14.611 16.9862
352 2 C 4.94434 3.8576 13.4909
353 2 C 5.82625 4.66575 12.6062
354 4 O 5.42521 4.66012 11.2205
355 1 H 4.94354 2.76807 13.299
356 1 H 5.38833 4.07579 14.4535
357 1 H 3.92236 4.21246 13.5467
358 1 H 6.87568 4.39306 12.6744
359 1 H 5.69719 5.70061 12.9245
360 1 H 4.99782 3.85223 10.9879
361 2 C 11.1406 16.7745 10.1764
362 2 C 10.8285 15.3929 10.8134
363 4 O 10.9056 15.3582 12.1982
364 1 H 12.2093 16.9785 10.2731
365 1 H 10.904 16.8221 9.10732
366 1 H 10.5631 17.5595 10.6877
367 1 H 11.6021 14.7315 10.4842
368 1 H 9.91853 14.9354 10.4463
369 1 H 10.2734 15.9699 12.6242
370 2 C 14.5467 9.82399 12.2138
371 2 C 13.4772 10.1301 11.1485
372 4 O 12.4463 10.9343 11.5755
373 1 H 15.3457 9.27872 11.7401
374 1 H 14.9835 10.7227 12.6026
375 1 H 14.1231 9.22042 13.0071
376 1 H 13.0331 9.19492 10.859
377 1 H 14.004 10.5557 10.3239
378 1 H 12.736 11.7553 12.0223
379 2 C 0.51286 4.89882 1.68985
380 2 C 1.07639 5.71725 2.83422
381 4 O 1.53028 5.04026 3.96842
382 1 H 1.27442 4.22963 1.28333
383 1 H -0.372106 4.34486 2.03583
384 1 H 0.105761 5.55879 0.948897
385 1 H 0.315028 6.45316 3.13356
386 1 H 1.91437 6.33291 2.44227
387 1 H 2.30657 4.50651 3.80572
388 2 C 14.45 14.6376 11.6198
389 2 C 14.2566 13.7074 12.7026
390 4 O 12.9419 13.2701 12.8036
391 1 H 15.4973 14.7798 11.4128
392 1 H 13.9592 14.1955 10.729
393 1 H 13.9414 15.5955 11.7765
394 1 H 14.5984 14.104 13.6483
395 1 H 14.8276 12.7947 12.5699
396 1 H 12.2485 13.9077 12.7106
397 2 C 0.599896 10.1367 12.6587
398 2 C 1.86341 10.4602 13.4504
399 4 O 2.84623 11.0451 12.552
400 1 H 0.870555 9.43262 11.8493
401 1 H -0.258392 9.72377 13.2067
402 1 H 0.290426 10.9861 12.0067
403 1 H 2.26547 9.56275 13.8971
404 1 H 1.63847 11.0565 14.3465
405 1 H 3.70104 10.6648 12.7205
406 2 C 5.28585 7.7185 16.7496
407 2 C 3.90684 8.16821 16.3937
408 4 O 3.53637 7.81699 15.0976
409 1 H 5.3146 6.61907 16.6054
410 1 H 5.85003 8.20592 15.9806
411 1 H 5.76662 7.9306 17.7167
412 1 H 3.76189 9.2613 16.5154
413 1 H 3.30451 7.55526 17.0918
414 1 H 2.5841 7.95713 15.1621
415 2 C 8.16143 7.8512 3.90483
416 2 C 8.82215 8.13717 5.22074
417 4 O 9.66367 9.24646 5.10203
418 1 H 7.53098 6.97555 3.97461
419 1 H 7.53828 8.75101 3.75017
420 1 H 8.82846 7.71105 3.02828
421 1 H 9.51207 7.36619 5.54319
422 1 H 8.07358 8.21784 6.00434
423 1 H 9.40544 9.85983 4.41889
424 2 C 4.62008 15.336 4.60031
425 2 C 3.87307 14.3092 3.79973
426 4 O 2.55711 14.8583 3.64173
427 1 H 3.90356 15.9075 5.21092
428 1 H 5.40012 14.8441 5.26346
429 1 H 5.1529 16.0937 4.03649
430 1 H 3.65822 13.3532 4.33755
431 1 H 4.33246 14.0589 2.86098
432 1 H 1.93321 14.3397 3.09074
433 2 C 17.9824 3.93414 7.92937
434 2 C 0.0296959 4.01438 7.26142
435 4 O -0.254667 3.9177 5.88067
436 1 H 17.4348 3.26517 7.31978
437 1 H 18.037 3.63875 8.95905
438 1 H 17.5058 4.92758 7.91857
439 1 H 0.348282 3.00203 7.59639
440 1 H 0.639137 4.81155 7.58812
441 1 H 0.35246 4.30085 5.22193
442 2 C 17.0867 2.64554 -0.776601
443 2 C 16.6558 2.99394 17.1906
444 4 O 15.3282 2.57677 16.9652
445 1 H 17.1788 1.53281 -0.744228
446 1 H 18.0095 3.17551 -0.528619
447 1 H 16.193 2.8469 -0.164368
448 1 H 17.381 2.55233 16.4989
449 1 H 16.6471 4.05796 16.9854
450 1 H 15.0081 2.71713 16.0768
ITEM: TIMESTEP
7000
ITEM: NUMBER OF ATOMS
450
ITEM: BOX BOUNDS pp pp pp
-1.2588342746346530e+00 1.8183834274634702e+01
-1.2588342746346530e+00 1.8183834274634702e+01
-1.2588342746346530e+00 1.8183834274634702e+01
ITEM: ATOMS id type element x y z
1 2 C 14.1443 -0.723022 3.13619
2 2 C 13.5723 -0.498575 4.51388
3 4 O 12.8687 0.76862 4.78436
4 1 H 14.8476 0.0577318 2.84994
5 1 H 14.6022 17.7709 2.98318
6 1 H 13.3405 -0.636252 2.4163
7 1 H 14.3686 -0.677744 5.25279
8 1 H 12.8047 18.1516 4.65351
9 1 H 12.1777 0.507841 5.38435
10 2 C 12.5848 16.0037 15.1189
11 2 C 12.7259 15.1741 16.3586
12 4 O 12.5694 13.7651 16.2026
13 1 H 11.6682 15.7696 14.5843
14 1 H 12.5009 17.04 15.4158
15 1 H 13.4421 15.8866 14.4262
16 1 H 12.0492 15.4638 17.1819
17 1 H 13.7299 15.2421 16.7632
18 1 H 11.9059 13.6428 15.5244
19 2 C 12.7132 3.98692 1.53314
20 2 C 13.6227 5.17711 1.46284
21 4 O 13.2645 6.18633 2.43514
22 1 H 11.68 4.38789 1.62778
23 1 H 12.7578 3.41784 0.630263
24 1 H 12.8373 3.27389 2.36445
25 1 H 13.5969 5.63593 0.478566
26 1 H 14.6735 4.87453 1.67926
27 1 H 13.4375 5.76935 3.29731
28 2 C 0.0900791 7.78004 9.51266
29 2 C -0.43255 9.15438 9.25336
30 4 O -0.0656711 9.59543 7.91033
31 1 H 1.15738 7.62831 9.44775
32 1 H -0.196668 7.43914 10.5184
33 1 H -0.355206 7.09708 8.8344
34 1 H -0.127126 9.95043 9.9561
35 1 H 17.9384 9.08061 9.26867
36 1 H 0.84952 9.86737 8.01069
37 2 C 0.509708 16.2993 14.2205
38 2 C 0.978768 17.7052 14.4126
39 4 O 2.11632 18.1005 14.2689
40 1 H -0.208677 16.4957 13.429
41 1 H 1.27049 15.5336 14.0556
42 1 H -0.0168241 15.9711 15.1069
43 1 H 0.17312 -0.996459 14.4988
44 1 H 17.2332 17.9961 0.0459188
45 1 H 5.90728 4.91046 6.127
46 2 C 6.475 13.0525 7.70076
47 2 C 7.21345 12.039 6.84828
48 4 O 6.5154 11.7609 5.63829
49 1 H 7.06455 13.4345 8.53174
50 1 H 6.28351 13.9014 7.04872
51 1 H 5.51214 12.6233 8.01127
52 1 H 7.18882 11.0935 7.38469
53 1 H 8.26403 12.3319 6.67609
54 1 H 5.92587 12.503 5.46143
55 2 C 17.1556 4.18313 12.508
56 2 C 15.8018 4.53483 13.0235
57 4 O 15.6758 5.12314 14.2773
58 1 H 17.7854 3.7666 13.2523
59 1 H 17.0659 3.46225 11.6535
60 1 H 17.7233 5.07958 12.2297
61 1 H 15.2636 3.59031 13.0734
62 1 H 15.2244 5.11962 12.303
63 1 H 16.4101 5.63004 14.6058
64 2 C 10.6164 10.326 8.39843
65 2 C 9.67185 10.0023 9.51871
66 4 O 10.2194 9.18204 10.5148
67 1 H 11.0283 9.34114 8.10816
68 1 H 10.161 10.8268 7.5701
69 1 H 11.3969 10.9785 8.7843
70 1 H 8.81375 9.45237 9.13785
71 1 H 9.25684 10.9254 9.96066
72 1 H 10.6474 9.74727 11.1488
73 2 C 4.13555 2.58335 6.89214
74 2 C 3.36944 3.84591 6.4674
75 4 O 3.829 4.98158 7.15065
76 1 H 4.84769 2.31334 6.09742
77 1 H 4.76212 2.78791 7.76129
78 1 H 3.55829 1.65923 7.14226
79 1 H 2.30182 3.84092 6.71031
80 1 H 3.4037 3.95963 5.41086
81 1 H 4.73602 4.90676 7.47687
82 2 C 7.20888 9.58722 12.4282
83 2 C 5.94236 8.89838 12.9102
84 4 O 4.99728 9.74966 13.5367
85 1 H 7.84544 9.85599 13.2548
86 1 H 7.87344 8.92778 11.7532
87 1 H 7.02667 10.5076 11.8776
88 1 H 6.23614 8.23242 13.7011
89 1 H 5.4916 8.31869 12.1234
90 1 H 4.38454 9.14659 14.0112
91 2 C 11.1714 3.4033 16.301
92 2 C 12.6126 2.9979 16.3476
93 4 O 13.3904 3.35373 15.1627
94 1 H 11.0123 3.51053 15.2201
95 1 H 10.6394 2.56454 16.7399
96 1 H 10.8757 4.19647 16.9344
97 1 H 12.627 1.91668 16.3445
98 1 H 13.1101 3.34011 17.3131
99 1 H 13.545 4.32761 15.0597
100 2 C 7.35299 13.5036 11.6008
101 2 C 5.85596 13.5627 11.8665
102 4 O 5.53275 14.7262 12.6386
103 1 H 7.98934 13.3358 12.4553
104 1 H 7.52918 12.6611 10.8812
105 1 H 7.61606 14.4548 11.1105
106 1 H 5.47851 12.67 12.3733
107 1 H 5.32326 13.6529 10.9327
108 1 H 4.57794 14.7275 12.8558
109 2 C 0.0350488 -0.755426 6.55569
110 2 C 1.53956 -0.967202 6.42228
111 4 O 1.89141 17.2074 5.84689
112 1 H -0.316789 -0.418227 5.6068
113 1 H -0.454251 17.8018 6.92069
114 1 H -0.350685 -0.00114554 7.2499
115 1 H 1.94988 -0.993617 7.41719
116 1 H 1.98893 -0.16381 5.83103
117 1 H 1.94263 17.2106 4.90976
118 2 C 4.56416 9.45977 9.02135
119 2 C 3.53479 10.5365 8.71752
120 4 O 2.2652 10.4533 9.41884
121 1 H 4.10593 8.5043 8.7175
122 1 H 5.51611 9.73204 8.52088
123 1 H 4.61058 9.45725 10.1358
124 1 H 3.27464 10.4388 7.66293
125 1 H 3.89623 11.496 8.8712
126 1 H 2.42267 10.5236 10.363
127 2 C 5.86276 -1.21686 15.7786
128 2 C 5.0052 17.0432 16.1663
129 4 O 4.33676 16.404 15.0877
130 1 H 5.18711 -0.431207 15.4353
131 1 H 6.62942 -0.776736 16.5035
132 1 H 6.47307 17.9706 14.8763
133 1 H 4.29336 17.4482 16.8901
134 1 H 5.58116 16.3148 16.7471
135 1 H 3.63286 16.9925 14.7989
136 2 C 8.17969 12.0816 1.33906
137 2 C 7.77843 10.9645 2.2781
138 4 O 8.34544 11.1437 3.57713
139 1 H 9.24419 12.0394 1.14516
140 1 H 7.55039 12.0335 0.470705
141 1 H 8.04889 13.0995 1.70578
142 1 H 8.10552 9.96085 1.8103
143 1 H 6.70599 10.9148 2.34311
144 1 H 7.60842 11.3402 4.21355
145 2 C 8.64854 15.5933 4.16831
146 2 C 9.74304 14.6581 3.88743
147 4 O 10.4641 14.3111 5.15891
148 1 H 8.0623 15.8324 3.22033
149 1 H 7.9524 15.2149 4.94611
150 1 H 9.05518 16.4884 4.62053
151 1 H 10.5151 15.066 3.25643
152 1 H 9.38002 13.718 3.40475
153 1 H 10.9678 13.5053 4.93679
154 2 C 16.6832 -0.35225 13.7166
155 2 C 17.6532 0.781182 13.6808
156 4 O -0.713349 0.488975 12.7811
157 1 H 17.2563 18.1604 13.6491
158 1 H 16.1265 -0.362716 14.6452
159 1 H 16.0332 -0.282232 12.8549
160 1 H -1.34337 0.897261 14.6822
161 1 H 17.1328 1.7289 13.4094
162 1 H -0.0516657 1.1726 12.9754
163 2 C 16.4685 8.33642 6.03509
164 2 C 15.189 8.93698 6.60833
165 4 O 14.0107 8.32451 6.14122
166 1 H 16.4327 7.9994 5.005
167 1 H 17.2846 9.06517 6.07833
168 1 H 16.8022 7.51031 6.65226
169 1 H 15.1117 9.98888 6.39183
170 1 H 15.2866 8.81619 7.67022
171 1 H 13.5534 8.87401 5.49853
172 2 C 14.34 8.93064 0.179182
173 2 C 14.4508 10.467 -0.196587
174 4 O 15.82 10.7679 0.154372
175 1 H 14.8725 8.38085 -0.575449
176 1 H 14.816 8.80614 1.18279
177 1 H 13.3307 8.57422 0.175976
178 1 H 13.8296 11.0372 0.530542
179 1 H 14.1356 10.6761 -1.26089
180 1 H 16.0072 11.631 -0.212654
181 2 C 17.2924 2.02508 3.28554
182 2 C 16.0401 2.56855 4.03311
183 4 O 16.3467 3.83797 4.6296
184 1 H 17.8045 2.85261 2.75706
185 1 H 18.0068 1.69309 4.0225
186 1 H 16.9304 1.25806 2.55328
187 1 H 15.8535 1.78392 4.73849
188 1 H 15.1784 2.70294 3.36094
189 1 H 16.0906 4.55818 4.08648
190 2 C 7.23698 16.9441 8.62968
191 2 C 7.07659 -1.02587 9.01858
192 4 O 6.97509 -0.340721 7.80696
193 1 H 8.06755 16.8316 7.94286
194 1 H 7.4354 16.3368 9.507
195 1 H 6.29524 16.5362 8.28099
196 1 H 7.89504 -0.663721 9.62921
197 1 H 6.22359 -0.942768 9.69138
198 1 H 7.08798 0.594127 8.00448
199 2 C 8.87026 -0.35904 12.6499
200 2 C 8.00872 17.8134 12.4871
201 4 O 8.65639 16.8687 13.3274
202 1 H 8.44821 0.438482 11.987
203 1 H 8.81787 -0.071723 13.7287
204 1 H 9.92645 -0.558942 12.4358
205 1 H 7.93255 17.5104 11.4284
206 1 H 7.01348 18.1459 12.7976
207 1 H 7.90889 16.3534 13.7165
208 2 C 2.13639 9.85661 4.73449
209 2 C 1.39633 10.1481 3.4954
210 4 O 2.17428 10.8152 2.49554
211 1 H 2.97553 9.20923 4.52938
212 1 H 2.38686 10.8127 5.22347
213 1 H 1.58111 9.3139 5.47861
214 1 H 0.474549 10.7401 3.73971
215 1 H 1.00128 9.20555 3.12808
216 1 H 1.595 11.222 1.85936
217 2 C -0.140775 9.03097 0.449362
218 2 C -1.08404 8.76784 -0.743655
219 4 O -1.12949 7.36031 -0.978493
220 1 H -0.635194 8.61743 1.34612
221 1 H 0.877072 8.58346 0.319981
222 1 H -0.137162 10.0886 0.599881
223 1 H -0.675263 9.30833 17.8373
224 1 H 17.4136 9.2806 -0.560773
225 1 H 17.5029 7.03451 18.0341
226 2 C 14.6802 5.36834 7.28459
227 2 C 13.8802 5.26251 5.97584
228 4 O 14.3756 5.93689 4.84434
229 1 H 14.6097 6.42775 7.65386
230 1 H 14.402 4.72884 8.11307
231 1 H 15.7042 5.107 6.96595
232 1 H 12.856 5.51841 6.24846
233 1 H 13.8845 4.20925 5.66202
234 1 H 14.3446 6.87885 5.04336
235 2 C -0.873411 16.2211 2.42311
236 2 C 17.5972 17.1173 1.76372
237 4 O 17.9761 17.6081 0.527027
238 1 H -0.65342 15.2181 1.91189
239 1 H 0.135135 16.5743 2.63125
240 1 H -1.30566 15.9259 3.36462
241 1 H 17.5891 17.9583 2.4465
242 1 H 16.5197 16.7722 1.651
243 1 H 17.9119 4.18109 5.60164
244 2 C 14.7637 13.5749 3.36646
245 2 C 13.4617 14.1608 2.82507
246 4 O 12.7774 13.3182 1.94711
247 1 H 15.6052 13.7904 2.68791
248 1 H 15.0247 13.9753 4.28379
249 1 H 14.5998 12.5869 3.51711
250 1 H 13.8429 14.8629 2.13388
251 1 H 12.7545 14.6082 3.63184
252 1 H 12.578 12.5273 2.47042
253 2 C 0.676645 4.2894 16.0865
254 2 C 0.0705513 5.67044 15.8048
255 4 O 0.798816 6.67769 16.538
256 1 H -0.0531842 3.63038 15.5844
257 1 H 1.66691 4.04485 15.6669
258 1 H 0.756636 4.07118 17.1659
259 1 H -0.898549 5.62294 16.2227
260 1 H -0.0794503 5.87948 14.7252
261 1 H 0.154077 6.908 17.2396
262 2 C 2.03762 -0.812434 0.571851
263 2 C 2.46635 -0.345009 1.98527
264 4 O 2.33943 18.0546 2.96789
265 1 H 2.4081 17.6175 0.420843
266 1 H 0.981796 -0.663371 0.435215
267 1 H 2.63326 -0.252259 -0.161282
268 1 H 1.81483 0.404713 2.43117
269 1 H 3.49981 -0.0289366 1.91124
270 1 H 2.5042 17.1862 2.57751
271 2 C 12.9965 17.816 -0.823356
272 2 C 14.4072 17.3242 -0.552654
273 4 O 15.4769 -1.09161 -0.321791
274 1 H 12.787 -1.37015 17.6046
275 1 H 12.2312 17.1019 -0.569731
276 1 H 12.6961 -0.72446 -0.300591
277 1 H 14.8066 16.6134 -1.25937
278 1 H 14.3553 16.7562 0.327568
279 1 H 15.4291 -0.398575 -0.961322
280 2 C 10.2721 1.45685 8.87042
281 2 C 9.40768 2.53407 8.26086
282 4 O 8.04551 2.31652 8.56939
283 1 H 9.80121 0.489412 8.66775
284 1 H 11.2403 1.3827 8.37125
285 1 H 10.4607 1.55369 9.93455
286 1 H 9.63356 2.44442 7.21636
287 1 H 9.69018 3.51778 8.63538
288 1 H 7.56637 3.16094 8.55264
289 2 C 8.16799 6.60276 8.86873
290 2 C 7.19322 5.98858 7.90912
291 4 O 6.42859 4.87923 8.3931
292 1 H 8.77753 5.8294 9.34284
293 1 H 8.8213 7.25489 8.31981
294 1 H 7.69472 7.10008 9.65136
295 1 H 7.76603 5.69054 6.97877
296 1 H 6.41625 6.65229 7.54709
297 1 H 6.29087 5.01758 9.36556
298 2 C 12.5541 13.973 7.05532
299 2 C 13.0306 12.5818 6.66286
300 4 O 12.1247 12.032 5.65376
301 1 H 13.1073 14.305 7.97567
302 1 H 12.6467 14.8199 6.35473
303 1 H 11.5121 13.962 7.39279
304 1 H 13.0102 11.85 7.44071
305 1 H 14.0303 12.6166 6.2129
306 1 H 11.6835 11.2684 6.01584
307 2 C 14.8567 6.42081 16.9643
308 2 C 15.517 7.54587 16.203
309 4 O 16.8956 7.3085 15.7854
310 1 H 15.3672 6.38116 17.9358
311 1 H 13.7991 6.65741 17.0146
312 1 H 14.979 5.47857 16.4655
313 1 H 15.4123 8.49328 16.7452
314 1 H 14.931 7.68812 15.2808
315 1 H 17.1667 8.2001 15.5128
316 2 C 0.126367 13.7923 6.815
317 2 C 1.51281 13.4247 7.43931
318 4 O 2.33761 14.5713 7.58959
319 1 H 0.38825 14.3663 5.90636
320 1 H -0.454575 12.8997 6.59374
321 1 H -0.404924 14.4883 7.4926
322 1 H 1.95421 12.6874 6.83013
323 1 H 1.42819 12.9851 8.42481
324 1 H 2.2311 15.0851 6.78517
325 2 C 15.5167 0.567282 9.27695
326 2 C 17.0077 0.605269 9.55891
327 4 O 17.2857 1.55022 10.6113
328 1 H 15.0161 1.36115 8.71647
329 1 H 15.203 -0.331999 8.79583
330 1 H 15.0616 0.574937 10.2431
331 1 H 17.5776 1.03181 8.71109
332 1 H 17.3793 -0.382102 9.88194
333 1 H 17.8109 1.10254 11.329
334 2 C 2.32524 2.93787 10.3039
335 2 C 1.61248 2.379 11.5421
336 4 O 0.383297 2.92078 11.7511
337 1 H 3.365 2.56398 10.2423
338 1 H 1.7906 2.55847 9.39867
339 1 H 2.34312 4.04152 10.3259
340 1 H 2.2255 2.60178 12.4485
341 1 H 1.58248 1.27423 11.4705
342 1 H -0.320127 2.64852 11.1203
343 2 C 8.9715 15.8789 16.6051
344 2 C 8.93234 14.7747 17.6313
345 4 O 7.54486 14.5228 18.0434
346 1 H 9.9968 16.1884 16.4266
347 1 H 8.51381 15.6695 15.5873
348 1 H 8.53837 16.8634 16.9327
349 1 H 9.43494 15.1159 -0.872299
350 1 H 9.40047 13.8991 17.3691
351 1 H 7.15868 13.8916 17.4126
352 2 C 4.77982 3.69865 13.3983
353 2 C 5.73737 4.60901 12.6169
354 4 O 5.43341 4.71636 11.2119
355 1 H 4.64426 2.75453 12.9159
356 1 H 4.9127 3.58833 14.4589
357 1 H 3.78105 4.19953 13.2456
358 1 H 6.80977 4.36215 12.6368
359 1 H 5.72223 5.63108 13.0183
360 1 H 4.8666 4.02432 10.8966
361 2 C 10.9196 16.8572 10.4323
362 2 C 10.6192 15.4349 10.8342
363 4 O 11.3242 15.1363 12.0774
364 1 H 11.9332 17.1527 10.6473
365 1 H 10.7796 16.9072 9.3605
366 1 H 10.2129 17.5158 10.8825
367 1 H 10.9949 14.7419 10.0495
368 1 H 9.5464 15.2767 10.9693
369 1 H 10.6977 15.4302 12.7295
370 2 C 14.1657 9.60971 12.1208
371 2 C 12.9999 9.92988 11.19
372 4 O 12.0179 10.8609 11.7419
373 1 H 14.7822 8.74216 11.8064
374 1 H 14.7637 10.5535 12.2369
375 1 H 13.7501 9.39982 13.121
376 1 H 12.4308 8.99281 11.0209
377 1 H 13.4269 10.2883 10.2161
378 1 H 12.4143 11.608 12.2224
379 2 C 0.965669 4.93888 1.58321
380 2 C 1.04602 5.78699 2.91079
381 4 O 1.18396 4.815 3.99262
382 1 H 1.98063 4.58513 1.24835
383 1 H 0.348113 4.08264 1.79492
384 1 H 0.455131 5.41173 0.736801
385 1 H 0.0665818 6.2416 3.04716
386 1 H 1.80777 6.54337 2.96363
387 1 H 1.62679 4.01575 3.70534
388 2 C 14.6375 14.6807 11.6609
389 2 C 14.5373 13.7378 12.8945
390 4 O 13.1813 13.2766 13.167
391 1 H 15.6645 14.9907 11.5608
392 1 H 14.3612 14.1134 10.7714
393 1 H 13.988 15.5451 11.6551
394 1 H 14.8661 14.2133 13.8365
395 1 H 15.0677 12.7832 12.765
396 1 H 12.5555 13.9802 12.856
397 2 C 0.40941 10.146 12.6405
398 2 C 1.61131 10.6634 13.3472
399 4 O 2.60102 10.9207 12.4028
400 1 H 0.587914 9.21163 12.0992
401 1 H -0.380149 10.0127 13.3371
402 1 H 0.0987586 10.7926 11.8628
403 1 H 1.93078 10.0209 14.1724
404 1 H 1.26936 11.597 13.7941
405 1 H 3.48691 10.5644 12.6689
406 2 C 5.67178 7.72773 16.5405
407 2 C 4.13303 7.93262 16.4709
408 4 O 3.74884 7.97436 15.0666
409 1 H 6.12629 6.86228 16.1212
410 1 H 6.17482 8.6604 16.1943
411 1 H 5.8682 7.71852 17.6356
412 1 H 3.91535 8.91731 16.7884
413 1 H 3.64563 7.15783 17.0618
414 1 H 3.17542 7.2598 14.826
415 2 C 8.047 7.6682 4.03417
416 2 C 8.78919 8.03288 5.34657
417 4 O 9.63548 9.16897 5.23786
418 1 H 7.27913 6.93686 4.3027
419 1 H 7.60707 8.55322 3.58031
420 1 H 8.77043 7.21811 3.35054
421 1 H 9.38734 7.19571 5.74198
422 1 H 7.98028 8.24688 6.07671
423 1 H 9.26246 9.77481 4.56429
424 2 C 4.64939 15.3246 4.79775
425 2 C 3.64401 14.3798 4.17049
426 4 O 2.67079 15.1635 3.44778
427 1 H 4.26669 15.668 5.68595
428 1 H 5.63668 14.9691 4.9489
429 1 H 4.69005 16.243 4.20396
430 1 H 3.08931 13.7454 4.86321
431 1 H 4.15803 13.6741 3.47467
432 1 H 2.02202 14.5247 3.12648
433 2 C 18.0937 3.90748 8.27753
434 2 C -0.291433 4.2835 7.29267
435 4 O -0.657533 4.25132 5.91606
436 1 H 17.6249 2.9545 7.9781
437 1 H -0.868347 3.89438 9.26838
438 1 H 17.2985 4.66482 8.24319
439 1 H 0.462287 3.52961 7.43185
440 1 H 0.0964498 5.26323 7.6208
441 1 H 0.00408348 4.554 5.30831
442 2 C 17.2499 2.87696 -0.927485
443 2 C 16.7988 2.99883 17.1015
444 4 O 15.5078 2.46386 16.8929
445 1 H 17.4054 1.8584 -0.610361
446 1 H 18.1583 3.46049 -0.918641
447 1 H 16.5 3.46271 -0.440397
448 1 H 17.5375 2.47525 16.4792
449 1 H 16.8388 4.04539 16.7505
450 1 H 15.023 2.71831 16.0994
ITEM: TIMESTEP
7100
ITEM: NUMBER OF ATOMS
450
ITEM: BOX BOUNDS pp pp pp
-1.2584982408570262e+00 1.8183498240857070e+01
-1.2584982408570262e+00 1.8183498240857070e+01
-1.2584982408570262e+00 1.8183498240857070e+01
ITEM: ATOMS id type element x y z
1 2 C 14.152 -0.952624 3.47704
2 2 C 13.3235 -0.904151 4.78975
3 4 O 13.0241 0.472702 4.86535
4 1 H 15.0821 -0.354236 3.46009
5 1 H 14.3897 17.435 3.26086
6 1 H 13.5109 -0.665284 2.63796
7 1 H 13.8688 -1.38242 5.60545
8 1 H 12.4578 17.9527 4.54024
9 1 H 12.7018 0.724137 5.72764
10 2 C 12.2973 16.0747 15.4777
11 2 C 12.907 14.9895 16.34
12 4 O 12.9363 13.691 15.7169
13 1 H 11.2017 16.0715 15.6209
14 1 H 12.6032 17.0689 15.8208
15 1 H 12.6288 15.9124 14.4724
16 1 H 12.439 14.9138 17.3061
17 1 H 13.954 15.2906 16.5817
18 1 H 13.7404 13.6619 15.2029
19 2 C 12.6381 4.11409 1.72955
20 2 C 13.8155 5.03958 1.52533
21 4 O 13.6773 6.21156 2.24619
22 1 H 11.7057 4.68864 1.81152
23 1 H 12.5131 3.36162 0.901654
24 1 H 12.7009 3.57049 2.67043
25 1 H 13.9077 5.30997 0.452242
26 1 H 14.7023 4.57023 1.89531
27 1 H 14.0903 6.09689 3.12172
28 2 C -0.0201637 7.76098 9.21356
29 2 C -0.562164 9.15216 8.9097
30 4 O -0.213007 9.53082 7.59413
31 1 H 1.02562 7.61165 8.88522
32 1 H -0.0468226 7.54114 10.2843
33 1 H -0.586638 6.96802 8.69865
34 1 H -0.175564 9.87622 9.59612
35 1 H 17.7541 9.09922 8.97448
36 1 H 0.66055 9.91639 7.63873
37 2 C 0.288494 16.4303 14.3721
38 2 C 0.853729 17.7843 14.7201
39 4 O 1.93381 18.2183 14.386
40 1 H 0.323709 16.4364 13.2667
41 1 H 0.895124 15.6203 14.6873
42 1 H -0.712609 16.3773 14.8325
43 1 H 0.247762 -1.08112 15.3985
44 1 H 16.9729 18.1682 0.260042
45 1 H 5.91854 5.50191 5.81779
46 2 C 6.3906 13.3264 7.70773
47 2 C 7.20672 12.1918 7.09404
48 4 O 6.77131 11.8439 5.79306
49 1 H 6.7016 13.5058 8.74377
50 1 H 6.55514 14.2644 7.18558
51 1 H 5.35434 13.0341 7.6752
52 1 H 7.18926 11.3169 7.72804
53 1 H 8.22579 12.5405 7.07764
54 1 H 6.62322 12.6914 5.36205
55 2 C 17.3628 4.49317 12.5042
56 2 C 15.8312 4.74635 12.8048
57 4 O 15.67 5.40816 14.1181
58 1 H 17.7513 3.88572 13.3344
59 1 H 17.5623 4.14025 11.4743
60 1 H 18.0394 5.37219 12.7072
61 1 H 15.3731 3.72273 12.8077
62 1 H 15.3896 5.42113 12.0519
63 1 H 16.4478 5.94401 14.3277
64 2 C 10.6573 10.2154 8.22783
65 2 C 9.65541 10.1046 9.41101
66 4 O 9.96615 9.04103 10.3088
67 1 H 11.0668 9.28831 7.90817
68 1 H 10.0121 10.6813 7.43443
69 1 H 11.4774 10.8948 8.48942
70 1 H 8.6753 9.86352 8.99388
71 1 H 9.5422 11.0737 9.9107
72 1 H 10.3973 9.39822 11.1124
73 2 C 4.26969 2.44137 6.84504
74 2 C 3.40253 3.62377 6.58312
75 4 O 3.91663 4.84652 7.12123
76 1 H 5.25616 2.5993 6.4285
77 1 H 4.21921 2.16266 7.91328
78 1 H 3.98041 1.58798 6.24914
79 1 H 2.3895 3.55188 6.96329
80 1 H 3.33281 3.66534 5.45432
81 1 H 4.81995 4.72365 7.42478
82 2 C 7.26583 9.70008 12.5617
83 2 C 6.01013 8.91747 12.7512
84 4 O 5.10344 9.77857 13.4413
85 1 H 7.62103 10.0844 13.5503
86 1 H 8.04445 9.16977 12.0385
87 1 H 7.11743 10.5561 11.9788
88 1 H 6.23655 8.00766 13.3557
89 1 H 5.62945 8.5823 11.7193
90 1 H 4.60969 9.24341 14.0672
91 2 C 11.1006 3.49014 16.2861
92 2 C 12.6183 2.99315 16.2923
93 4 O 13.4082 3.57961 15.3001
94 1 H 10.7848 3.14883 15.3047
95 1 H 10.5675 3.28108 17.2
96 1 H 11.0956 4.6448 16.1872
97 1 H 12.8069 1.9119 16.2967
98 1 H 12.9456 3.32653 17.2549
99 1 H 13.59 4.48629 15.3211
100 2 C 7.22874 13.077 11.5483
101 2 C 5.79286 13.268 12.0675
102 4 O 5.77191 14.6149 12.5237
103 1 H 7.96901 13.0721 12.3278
104 1 H 7.33588 12.1634 10.9911
105 1 H 7.37679 13.9235 10.8641
106 1 H 5.48289 12.5738 12.8414
107 1 H 5.06126 13.2437 11.2286
108 1 H 5.17923 14.6644 13.275
109 2 C 0.083499 -0.727064 6.54951
110 2 C 1.54577 -1.00311 6.31859
111 4 O 1.63672 17.1775 5.70412
112 1 H -0.43421 -0.417722 5.59523
113 1 H -0.509019 17.916 7.03089
114 1 H -0.0562166 0.028048 7.31126
115 1 H 1.9237 -1.12247 7.34666
116 1 H 2.07721 -0.220071 5.78816
117 1 H 1.6284 17.1741 4.71714
118 2 C 4.53486 9.63881 9.05925
119 2 C 3.56694 10.8567 8.80378
120 4 O 2.29791 10.6153 9.32661
121 1 H 4.07866 8.76702 8.62871
122 1 H 5.40353 9.97868 8.54965
123 1 H 4.71128 9.61082 10.125
124 1 H 3.56217 11.0582 7.73832
125 1 H 4.00319 11.7965 9.32691
126 1 H 2.38333 10.6145 10.3033
127 2 C 5.59285 -1.22914 15.408
128 2 C 4.99572 17.0073 16.1134
129 4 O 4.34534 16.1617 15.1822
130 1 H 4.86595 -0.769564 14.7587
131 1 H 5.86134 -0.473048 16.0962
132 1 H 6.4654 17.9968 14.8066
133 1 H 4.28788 17.3731 16.9016
134 1 H 5.76161 16.3949 16.5589
135 1 H 3.64687 16.6978 14.7918
136 2 C 8.03602 11.9393 1.51159
137 2 C 7.92757 10.754 2.44875
138 4 O 8.62046 10.9676 3.66778
139 1 H 9.11584 12.1843 1.46236
140 1 H 7.79489 11.6097 0.483186
141 1 H 7.46772 12.861 1.70965
142 1 H 8.39476 9.96078 1.96984
143 1 H 6.87486 10.4818 2.65023
144 1 H 8.11376 11.5695 4.21147
145 2 C 8.63394 15.6652 3.8262
146 2 C 9.78664 14.6713 3.71324
147 4 O 10.4059 14.5985 4.9073
148 1 H 8.1887 15.7554 2.85293
149 1 H 7.82405 15.2708 4.45719
150 1 H 9.00554 16.5796 4.24318
151 1 H 10.5482 15.0576 2.95952
152 1 H 9.38831 13.7389 3.31434
153 1 H 11.029 13.8851 4.84459
154 2 C 16.3995 -0.545219 13.8408
155 2 C 17.4432 0.591479 13.9544
156 4 O -0.853319 0.292776 13.1632
157 1 H 16.5869 18.0197 14.4657
158 1 H 15.4455 -0.13948 14.2202
159 1 H 16.3238 -0.87966 12.8186
160 1 H 17.7235 0.791622 14.9804
161 1 H 17.0049 1.52676 13.6334
162 1 H -0.343077 1.08712 13.0178
163 2 C 16.3593 8.06896 6.00533
164 2 C 15.4062 9.18366 6.38902
165 4 O 14.0376 8.7114 6.19299
166 1 H 16.4054 7.91891 4.93631
167 1 H 17.3995 8.20683 6.30465
168 1 H 16.0018 7.12184 6.34457
169 1 H 15.5727 10.0518 5.75232
170 1 H 15.6128 9.45991 7.45314
171 1 H 13.4335 9.37686 6.51958
172 2 C 14.2115 9.21647 0.0581631
173 2 C 14.654 10.5354 -0.656859
174 4 O 16.0086 10.9054 -0.0754924
175 1 H 15.1002 8.59313 0.186903
176 1 H 13.8768 9.53531 1.06594
177 1 H 13.372 8.71401 -0.46281
178 1 H 13.9625 11.3726 -0.596793
179 1 H 14.8607 10.292 17.7916
180 1 H 15.7932 11.6663 0.425194
181 2 C 17.4295 2.00124 3.26003
182 2 C 15.9963 2.38789 3.78172
183 4 O 16.2243 3.72143 4.33549
184 1 H 17.3675 2.51344 2.30463
185 1 H -1.31584 2.68063 3.76422
186 1 H 17.7415 0.966072 3.32748
187 1 H 15.6471 1.5998 4.44816
188 1 H 15.2992 2.50377 2.98174
189 1 H 15.4185 4.22092 4.50792
190 2 C 6.83882 16.9029 9.06405
191 2 C 7.03378 -1.10488 9.26035
192 4 O 6.92281 -0.437485 8.00109
193 1 H 7.7788 16.5203 8.65072
194 1 H 6.63939 16.3033 9.96446
195 1 H 5.95973 16.6509 8.43415
196 1 H 8.06309 -0.832374 9.6315
197 1 H 6.2855 -0.703074 9.95766
198 1 H 7.10847 0.50781 8.14931
199 2 C 8.75781 -0.154179 12.5025
200 2 C 7.90637 18.0418 12.4442
201 4 O 8.37985 16.8762 13.2351
202 1 H 8.50942 0.451151 11.6507
203 1 H 8.63299 0.442936 13.4159
204 1 H 9.82692 -0.314767 12.4858
205 1 H 7.68146 17.6954 11.4195
206 1 H 6.9218 -1.07684 12.7847
207 1 H 7.7832 16.1699 12.9524
208 2 C 2.13762 10.0077 4.68097
209 2 C 1.50519 10.1094 3.26595
210 4 O 2.32995 10.8633 2.3915
211 1 H 3.10429 9.47798 4.67068
212 1 H 2.19049 10.9735 5.19636
213 1 H 1.48414 9.38947 5.33552
214 1 H 0.510089 10.5334 3.29893
215 1 H 1.44192 9.10988 2.83868
216 1 H 2.31151 10.5283 1.50195
217 2 C -0.151294 9.44959 0.366442
218 2 C -0.745631 8.92017 -0.944517
219 4 O -1.15746 7.52358 -0.817641
220 1 H -0.863992 9.47154 1.18017
221 1 H 0.600869 8.75485 0.690993
222 1 H 0.277076 10.4218 0.148787
223 1 H 0.0879871 8.96748 17.7694
224 1 H 17.8207 9.48784 -1.19799
225 1 H 17.6352 7.30866 17.9559
226 2 C 14.6886 5.32551 7.4404
227 2 C 13.9292 5.16135 6.16857
228 4 O 14.465 6.02346 5.2056
229 1 H 14.6371 6.24388 7.96489
230 1 H 14.3328 4.58914 8.17576
231 1 H 15.7423 5.13252 7.17528
232 1 H 12.9013 5.3786 6.39388
233 1 H 14.0257 4.12136 5.76042
234 1 H 14.0965 6.89392 5.45033
235 2 C -1.03907 16.402 2.59073
236 2 C 17.4579 17.4218 1.99838
237 4 O 17.7907 17.7722 0.647302
238 1 H -1.23567 15.5271 2.02326
239 1 H -0.00601887 16.6588 2.50562
240 1 H -1.24444 16.0419 3.61742
241 1 H 17.3925 18.2869 2.72383
242 1 H 16.4481 17.039 1.98916
243 1 H 17.4747 4.19512 5.87155
244 2 C 14.7937 13.4025 3.36162
245 2 C 13.4698 14.1607 2.79198
246 4 O 12.6028 13.0998 2.199
247 1 H 15.0287 12.9989 2.36971
248 1 H 15.5355 14.3363 3.60246
249 1 H 14.8555 12.9158 4.43156
250 1 H 13.9473 14.9072 2.06967
251 1 H 12.9394 14.8028 3.5395
252 1 H 11.7969 13.6269 2.14501
253 2 C 0.721769 4.27837 15.9274
254 2 C 0.165414 5.71114 15.9318
255 4 O 0.957999 6.71119 16.6014
256 1 H 0.0604361 3.65168 15.3952
257 1 H 1.77148 4.18647 15.5809
258 1 H 0.749915 3.86033 16.944
259 1 H -0.881521 5.75331 16.2654
260 1 H 0.135836 6.01928 14.8667
261 1 H 0.723289 6.62648 17.5244
262 2 C 2.07933 -0.720647 0.510298
263 2 C 2.66723 -0.470606 1.8687
264 4 O 2.14826 18.1072 2.95061
265 1 H 2.42899 17.8157 0.00522344
266 1 H 1.026 -0.701814 0.632729
267 1 H 2.41024 0.147297 -0.0613289
268 1 H 2.40524 0.519825 2.21922
269 1 H 3.76407 -0.549778 1.8418
270 1 H 2.51924 17.2337 2.81282
271 2 C 13.0278 17.7122 -0.519995
272 2 C 14.516 17.4179 -0.627171
273 4 O 15.3402 -0.947057 -0.836673
274 1 H 12.5715 18.3132 18.1049
275 1 H 12.4269 16.8227 -0.515832
276 1 H 12.7132 -1.13483 0.36682
277 1 H 14.7761 16.6707 18.0368
278 1 H 14.8203 16.9332 0.346151
279 1 H 15.0944 -0.46814 17.7743
280 2 C 10.2234 1.25665 8.75889
281 2 C 9.242 2.27588 8.32299
282 4 O 8.01324 2.10392 8.99908
283 1 H 10.0448 0.28393 8.29512
284 1 H 11.2239 1.50965 8.42157
285 1 H 10.2423 1.19877 9.83883
286 1 H 9.20849 2.17201 7.2009
287 1 H 9.63445 3.28833 8.45445
288 1 H 7.52454 2.9507 8.96511
289 2 C 8.03922 6.61843 8.87803
290 2 C 7.12788 5.86144 7.94068
291 4 O 6.49044 4.76339 8.58033
292 1 H 8.86779 5.94599 9.1628
293 1 H 8.37124 7.58009 8.46371
294 1 H 7.49838 6.86328 9.83312
295 1 H 7.83398 5.51 7.16687
296 1 H 6.35562 6.48224 7.45949
297 1 H 6.32726 4.87491 9.51047
298 2 C 12.7595 14.1607 6.87986
299 2 C 13.2021 12.7348 6.69718
300 4 O 12.4496 11.963 5.71599
301 1 H 13.5023 14.642 7.48788
302 1 H 12.6581 14.7129 5.96498
303 1 H 11.816 14.2395 7.3726
304 1 H 13.12 12.1083 7.58169
305 1 H 14.2371 12.7655 6.33456
306 1 H 11.7675 11.5077 6.18953
307 2 C 14.9426 6.39653 16.8028
308 2 C 15.4829 7.54217 15.9131
309 4 O 16.9228 7.39615 16.1338
310 1 H 15.2703 6.51047 17.8607
311 1 H 13.8547 6.40518 16.7497
312 1 H 15.3245 5.49674 16.3795
313 1 H 15.2282 8.56572 16.217
314 1 H 15.2758 7.35539 14.8598
315 1 H 17.4656 8.05848 15.6726
316 2 C 0.231344 14.1076 6.79953
317 2 C 1.43191 13.3923 7.33096
318 4 O 2.50111 14.3262 7.62409
319 1 H 0.496171 14.7062 5.9336
320 1 H -0.486347 13.3653 6.52445
321 1 H -0.100807 14.8405 7.50724
322 1 H 1.79437 12.6382 6.55668
323 1 H 1.20356 12.8278 8.26497
324 1 H 2.09594 15.1765 7.46532
325 2 C 15.4396 0.67882 9.15606
326 2 C 16.9165 0.734126 9.38991
327 4 O 17.2854 1.37842 10.6002
328 1 H 14.9026 1.53949 9.60065
329 1 H 15.2287 0.780777 8.08421
330 1 H 14.9588 -0.238213 9.55456
331 1 H 17.4318 1.26023 8.59628
332 1 H 17.427 -0.247873 9.30779
333 1 H 17.2701 0.706929 11.2607
334 2 C 2.33184 2.52576 10.1272
335 2 C 1.74049 2.38166 11.511
336 4 O 0.341645 2.74807 11.4999
337 1 H 3.34376 2.10819 10.0189
338 1 H 1.73709 1.95643 9.41789
339 1 H 2.26982 3.56777 9.87793
340 1 H 2.25735 2.98619 12.289
341 1 H 1.77519 1.34317 11.8178
342 1 H -0.157871 2.21752 10.8765
343 2 C 8.94666 15.8441 16.8969
344 2 C 9.01727 14.7517 17.9044
345 4 O 7.76156 14.2617 18.3264
346 1 H 9.84938 16.3819 16.7909
347 1 H 8.61396 15.4935 15.9272
348 1 H 8.2112 16.6048 17.3828
349 1 H 9.59704 15.0832 -0.63725
350 1 H 9.72535 13.8952 17.548
351 1 H 7.13634 14.2835 17.5906
352 2 C 4.64068 3.70418 13.1324
353 2 C 5.73389 4.56356 12.525
354 4 O 5.38749 4.79349 11.1278
355 1 H 4.54021 2.70694 12.6982
356 1 H 4.87692 3.53245 14.1999
357 1 H 3.6987 4.22652 13.1241
358 1 H 6.68885 4.05699 12.4811
359 1 H 5.88011 5.48986 13.066
360 1 H 4.53308 4.36034 10.9752
361 2 C 10.7934 16.8555 10.426
362 2 C 10.6742 15.3873 10.7926
363 4 O 11.3273 15.0582 12.0451
364 1 H 11.7904 17.1296 10.031
365 1 H 9.96289 17.198 9.78265
366 1 H 10.7183 17.3867 11.3663
367 1 H 11.0782 14.7312 10.0273
368 1 H 9.6156 15.1702 10.942
369 1 H 10.8189 15.5821 12.6724
370 2 C 13.8544 9.52754 12.2359
371 2 C 12.7742 9.92004 11.2293
372 4 O 11.7388 10.6405 11.8785
373 1 H 14.4432 8.79442 11.7103
374 1 H 14.4576 10.333 12.581
375 1 H 13.4572 9.04467 13.0987
376 1 H 12.3453 9.05065 10.7248
377 1 H 13.2442 10.4501 10.4268
378 1 H 12.1829 11.2972 12.4466
379 2 C 1.39706 5.1407 1.53199
380 2 C 0.89132 5.62116 2.85801
381 4 O 0.847383 4.6468 3.96782
382 1 H 2.20585 4.45898 1.50889
383 1 H 0.612536 4.66525 0.928401
384 1 H 1.73385 6.03372 0.971717
385 1 H -0.137286 5.89106 2.71317
386 1 H 1.45105 6.51501 3.18767
387 1 H 1.57507 4.77342 4.58728
388 2 C 14.813 14.6062 11.7711
389 2 C 14.7255 13.717 13.0164
390 4 O 13.4083 13.1375 13.1208
391 1 H 15.8761 14.9965 11.7172
392 1 H 14.6189 14.0316 10.8712
393 1 H 14.1605 15.4864 11.8631
394 1 H 14.9838 14.2529 13.9218
395 1 H 15.3775 12.8469 13.0301
396 1 H 12.7939 13.853 13.0551
397 2 C 0.195787 10.1974 12.7519
398 2 C 1.5254 10.8596 13.1068
399 4 O 2.49772 10.7378 12.0575
400 1 H 0.25373 9.11964 12.5183
401 1 H -0.557948 10.3247 13.5759
402 1 H -0.238217 10.745 11.9
403 1 H 1.95663 10.406 14.0069
404 1 H 1.24583 11.9299 13.1745
405 1 H 3.33542 10.468 12.414
406 2 C 5.90975 7.78281 16.3615
407 2 C 4.43559 7.59861 16.5533
408 4 O 3.8168 7.91555 15.224
409 1 H 6.39177 7.15114 15.6029
410 1 H 6.07957 8.81662 16.0393
411 1 H 6.38264 7.73331 17.305
412 1 H 3.9378 8.38307 17.2298
413 1 H 4.15123 6.64453 16.9894
414 1 H 2.89719 8.12053 15.3787
415 2 C 8.0193 7.44266 4.31591
416 2 C 8.66985 8.07517 5.55509
417 4 O 9.67945 9.0536 5.27373
418 1 H 7.76916 6.40346 4.57577
419 1 H 7.16734 7.96263 3.91441
420 1 H 8.85148 7.46647 3.65273
421 1 H 9.08126 7.29679 6.19773
422 1 H 7.84709 8.56112 6.05924
423 1 H 9.26199 9.79203 4.82396
424 2 C 4.62064 15.3041 4.99908
425 2 C 3.40436 14.579 4.38983
426 4 O 2.81014 15.3692 3.30309
427 1 H 4.43996 15.608 6.08089
428 1 H 5.39726 14.5311 5.09206
429 1 H 5.02014 16.1696 4.40226
430 1 H 2.68529 14.4142 5.13539
431 1 H 3.79782 13.6091 4.03314
432 1 H 2.00595 14.9017 3.15747
433 2 C 18.1249 4.06016 8.5088
434 2 C -0.488707 4.49543 7.3171
435 4 O -1.09363 4.60847 6.0105
436 1 H 17.7775 3.00739 8.47228
437 1 H -0.626261 4.04685 9.35243
438 1 H 17.2646 4.69089 8.60367
439 1 H 0.51027 4.04143 7.27672
440 1 H -0.234569 5.54207 7.59461
441 1 H -0.593057 4.81232 5.20574
442 2 C 17.4001 3.14959 -1.03776
443 2 C 17.006 3.05374 16.9029
444 4 O 15.8178 2.26379 16.8336
445 1 H 17.1249 2.20369 -0.601815
446 1 H -0.965705 3.33356 -0.901593
447 1 H 16.8547 4.04409 -0.739638
448 1 H 17.8222 2.5949 16.3246
449 1 H 16.7956 4.01286 16.4669
450 1 H 15.1179 2.59978 16.217
ITEM: TIMESTEP
7200
ITEM: NUMBER OF ATOMS
450
ITEM: BOX BOUNDS pp pp pp
-1.2280016557326867e+00 1.8153001655732734e+01
-1.2280016557326867e+00 1.8153001655732734e+01
-1.2280016557326867e+00 1.8153001655732734e+01
ITEM: ATOMS id type element x y z
1 2 C 14.1408 17.9936 3.8215
2 2 C 13.1289 -1.12612 4.87868
3 4 O 13.158 0.271913 5.16605
4 1 H 15.1283 18.1239 4.23103
5 1 H 14.0896 17.0056 3.34892
6 1 H 14.0522 -0.622229 3.05668
7 1 H 13.4024 17.637 5.72455
8 1 H 12.1415 17.9202 4.51185
9 1 H 12.3102 0.399524 5.61686
10 2 C 12.3097 15.9657 15.6063
11 2 C 13.2403 14.8205 16.191
12 4 O 12.8811 13.5796 15.7194
13 1 H 11.4834 15.4903 15.081
14 1 H 11.9034 16.6017 16.3991
15 1 H 12.9185 16.5237 14.905
16 1 H 13.0569 14.7932 17.2801
17 1 H 14.2797 15.048 16.0178
18 1 H 12.6628 13.5832 14.774
19 2 C 12.6032 4.26111 1.97061
20 2 C 13.9541 4.95739 1.57715
21 4 O 14.1865 6.23098 2.17677
22 1 H 11.7035 4.4311 1.42054
23 1 H 12.7589 3.19274 1.96972
24 1 H 12.4479 4.48722 3.00955
25 1 H 13.9296 5.15038 0.507799
26 1 H 14.8462 4.29846 1.71964
27 1 H 14.3187 6.12901 3.11056
28 2 C -0.185468 7.8173 9.06775
29 2 C -0.692231 9.17425 8.5954
30 4 O -0.210973 9.60783 7.34262
31 1 H 0.889966 7.89576 9.09654
32 1 H -0.538688 7.51706 10.0329
33 1 H -0.439529 7.02224 8.3277
34 1 H -0.366003 9.87792 9.36845
35 1 H 17.626 9.18189 8.56734
36 1 H 0.62571 10.0677 7.49519
37 2 C 0.1078 16.6282 14.4531
38 2 C 0.821877 17.8237 15.0062
39 4 O 1.8487 -1.169 14.5665
40 1 H 0.672953 16.2663 13.5718
41 1 H 0.277531 15.8566 15.2286
42 1 H -0.967298 16.8408 14.3015
43 1 H 0.367335 -1.05559 16.0095
44 1 H 16.8903 -1.0804 0.375597
45 1 H 6.27117 4.83628 6.09721
46 2 C 6.38254 13.5797 7.73032
47 2 C 7.17841 12.3576 7.26994
48 4 O 7.06037 12.1526 5.8336
49 1 H 6.40142 13.6055 8.82248
50 1 H 6.79794 14.5246 7.32532
51 1 H 5.3215 13.5058 7.47991
52 1 H 6.97452 11.4507 7.85612
53 1 H 8.2297 12.6409 7.44876
54 1 H 6.25851 11.6266 5.76892
55 2 C 17.499 4.79398 12.5186
56 2 C 15.993 4.9649 12.5602
57 4 O 15.6745 5.41992 13.8479
58 1 H 17.8105 4.19175 13.4144
59 1 H 17.6585 4.24663 11.6314
60 1 H 18.0831 5.67302 12.3902
61 1 H 15.5772 4.04018 12.2678
62 1 H 15.7284 5.67063 11.8078
63 1 H 16.468 5.78781 14.2767
64 2 C 10.6506 10.1056 8.19915
65 2 C 9.40831 10.1174 9.11139
66 4 O 9.53631 9.10439 10.1536
67 1 H 10.5312 9.32276 7.47012
68 1 H 10.7483 11.0503 7.68935
69 1 H 11.5019 9.81063 8.80485
70 1 H 8.49686 9.97484 8.51065
71 1 H 9.34315 11.0892 9.60197
72 1 H 10.1291 9.50126 10.8116
73 2 C 4.56712 2.26568 6.81316
74 2 C 3.59295 3.46619 6.58827
75 4 O 3.98254 4.67778 7.25636
76 1 H 5.64712 2.47648 6.87927
77 1 H 4.18796 1.73594 7.66604
78 1 H 4.47559 1.60494 5.96736
79 1 H 2.59593 3.23108 6.9668
80 1 H 3.57345 3.65193 5.54824
81 1 H 4.80819 4.43593 7.71535
82 2 C 7.34625 9.60082 12.6928
83 2 C 5.99979 8.89681 12.7272
84 4 O 4.9308 9.74837 13.213
85 1 H 7.58402 10.0781 13.6579
86 1 H 8.09847 8.92683 12.4025
87 1 H 7.42886 10.3545 11.9364
88 1 H 6.11334 7.96289 13.2346
89 1 H 5.82945 8.64927 11.7311
90 1 H 4.36137 9.24178 13.8203
91 2 C 11.2118 3.71764 16.1176
92 2 C 12.6102 3.12369 16.4175
93 4 O 13.5719 3.54286 15.3651
94 1 H 10.6232 3.16015 15.4021
95 1 H 10.7499 3.66304 17.1443
96 1 H 11.3003 4.69014 15.7352
97 1 H 12.7201 2.04731 16.5794
98 1 H 12.8212 3.64217 17.3699
99 1 H 13.7531 4.45318 15.3106
100 2 C 7.12804 12.8533 11.2843
101 2 C 5.96034 13.1721 12.1548
102 4 O 6.00104 14.5892 12.5677
103 1 H 7.9432 12.4971 11.9434
104 1 H 6.87545 12.0924 10.5878
105 1 H 7.45224 13.736 10.754
106 1 H 5.99057 12.5266 13.0411
107 1 H 4.98516 12.9999 11.6731
108 1 H 5.66653 14.5665 13.4477
109 2 C 0.104154 -0.506843 6.54282
110 2 C 1.48906 -1.1346 6.37848
111 4 O 1.51596 17.0332 5.57087
112 1 H -0.635517 -0.797896 5.82844
113 1 H -0.367988 -1.04339 7.3677
114 1 H 0.103007 0.545301 6.88128
115 1 H 1.87771 18.1835 7.38351
116 1 H 2.15699 -0.444019 5.82523
117 1 H 1.61222 17.3813 4.65804
118 2 C 4.52168 9.90581 9.03662
119 2 C 3.61806 11.141 8.90777
120 4 O 2.25925 10.7129 9.0045
121 1 H 4.02609 9.17323 8.42369
122 1 H 5.53904 10.1827 8.75628
123 1 H 4.45353 9.74477 10.0956
124 1 H 3.78353 11.6126 7.95118
125 1 H 3.83975 11.8371 9.65902
126 1 H 2.09631 10.4734 9.92587
127 2 C 5.38014 -1.24072 15.1657
128 2 C 4.82774 16.991 16.0001
129 4 O 4.34795 15.9012 15.194
130 1 H 4.69781 -0.744549 14.4263
131 1 H 5.60764 -0.433099 15.8719
132 1 H 6.29086 17.8808 14.6481
133 1 H 4.06592 17.3175 16.6759
134 1 H 5.67536 16.5148 16.4945
135 1 H 3.82744 16.3087 14.4853
136 2 C 7.89305 11.742 1.65252
137 2 C 8.11043 10.5806 2.61526
138 4 O 8.74478 10.9944 3.82458
139 1 H 8.83165 12.0912 1.28253
140 1 H 7.3802 11.5629 0.72356
141 1 H 7.39107 12.5006 2.23078
142 1 H 8.86931 9.87362 2.20859
143 1 H 7.17479 10.0131 2.78738
144 1 H 8.22099 11.6738 4.2699
145 2 C 8.50673 15.6777 3.44985
146 2 C 9.72793 14.6796 3.35442
147 4 O 10.3594 14.6105 4.65602
148 1 H 7.88939 15.6457 2.57131
149 1 H 7.894 15.358 4.27653
150 1 H 8.9503 16.691 3.58777
151 1 H 10.4718 14.9547 2.62451
152 1 H 9.28711 13.7482 3.0727
153 1 H 10.8967 13.8074 4.59636
154 2 C 16.1625 -0.634111 14.0016
155 2 C 17.091 0.499583 14.1746
156 4 O -1.11345 0.185714 13.3753
157 1 H 16.466 17.8938 14.5954
158 1 H 15.1613 -0.353011 14.3105
159 1 H 16.1393 -0.978363 12.9469
160 1 H 17.3759 0.689731 15.235
161 1 H 16.6882 1.43787 13.7806
162 1 H -0.536117 0.946738 13.2569
163 2 C 16.5279 8.30314 6.05153
164 2 C 15.5992 9.48326 6.21956
165 4 O 14.2633 8.99164 6.2524
166 1 H 16.1666 7.70877 5.19232
167 1 H 17.5481 8.60343 5.80716
168 1 H 16.6283 7.55874 6.85669
169 1 H 15.7786 10.1856 5.38383
170 1 H 15.8625 10.0266 7.10817
171 1 H 13.7538 9.47596 5.60751
172 2 C 14.103 9.56214 -0.105631
173 2 C 14.9738 10.5552 -0.86611
174 4 O 16.0066 11.179 -0.289048
175 1 H 14.5869 8.68597 0.319459
176 1 H 13.5432 10.0623 0.631041
177 1 H 13.3461 9.35689 -0.848797
178 1 H 14.3962 11.2507 -1.47106
179 1 H 15.4194 9.84243 17.7449
180 1 H 16.2866 10.6953 0.474828
181 2 C 17.5007 1.99925 3.17568
182 2 C 16.1787 2.41288 3.75753
183 4 O 16.1647 3.74031 4.26715
184 1 H 17.5709 2.60315 2.3008
185 1 H -1.00689 1.91604 3.83661
186 1 H 17.2373 0.997362 2.8841
187 1 H 15.9092 1.57954 4.42354
188 1 H 15.3842 2.42936 2.97731
189 1 H 15.3548 4.24674 4.02232
190 2 C 6.42182 16.8491 9.36334
191 2 C 6.9882 -1.07831 9.33748
192 4 O 6.87771 -0.405797 8.07891
193 1 H 7.01299 16.195 8.7341
194 1 H 6.54502 16.4265 10.3568
195 1 H 5.42022 16.6889 9.01602
196 1 H 7.99935 -1.07332 9.55802
197 1 H 6.47099 -0.492171 10.1004
198 1 H 7.10295 0.512017 8.23976
199 2 C 8.55963 -0.131766 12.6082
200 2 C 7.8281 17.9766 12.2902
201 4 O 8.16448 17.0237 13.2416
202 1 H 8.24978 0.789756 12.1209
203 1 H 8.52593 0.116689 13.6584
204 1 H 9.64556 -0.183731 12.3772
205 1 H 8.12488 17.4808 11.377
206 1 H 6.71767 -1.29865 12.2502
207 1 H 7.50108 16.3822 13.3915
208 2 C 2.11487 10.2348 4.56159
209 2 C 1.72239 9.94426 3.16704
210 4 O 2.56206 10.8998 2.44535
211 1 H 3.1545 9.95835 4.73494
212 1 H 2.10825 11.295 4.70897
213 1 H 1.42305 9.76952 5.25525
214 1 H 0.676056 10.178 2.97937
215 1 H 2.01998 8.94628 2.79289
216 1 H 2.24769 10.8689 1.53783
217 2 C -0.1942 9.78736 0.205878
218 2 C -0.42161 8.99008 -1.0479
219 4 O -1.00376 7.78068 -0.694792
220 1 H -1.09315 9.86558 0.812106
221 1 H 0.514822 9.22224 0.831997
222 1 H 0.327242 10.7659 -0.0772533
223 1 H 0.542452 8.90215 17.8203
224 1 H -1.19135 9.49453 17.7291
225 1 H 18.114 7.24708 17.9397
226 2 C 14.5273 5.17865 7.63668
227 2 C 13.6122 5.03191 6.42623
228 4 O 14.1595 5.75464 5.28293
229 1 H 14.6019 6.19086 8.05549
230 1 H 14.1409 4.5629 8.46314
231 1 H 15.5674 4.95906 7.47006
232 1 H 12.5953 5.37203 6.72355
233 1 H 13.5089 4.0356 6.06084
234 1 H 14.4159 6.6244 5.6233
235 2 C -1.11383 16.6202 2.65366
236 2 C 17.1988 17.6893 2.22745
237 4 O 17.565 17.8301 0.837607
238 1 H 18.0231 15.7125 2.10026
239 1 H -0.0880154 17 2.49645
240 1 H -1.21569 16.277 3.70781
241 1 H 17.185 -0.902653 2.92406
242 1 H 16.1911 17.2042 2.24072
243 1 H 17.0615 4.47186 6.10249
244 2 C 14.7232 13.3169 3.20151
245 2 C 13.4895 14.0019 2.68556
246 4 O 12.4683 13.0881 2.58619
247 1 H 14.7012 12.3478 2.72666
248 1 H 15.5578 13.8666 3.11146
249 1 H 14.6769 13.2285 4.26155
250 1 H 13.6425 14.6143 1.82009
251 1 H 13.205 14.845 3.31958
252 1 H 11.9115 13.4989 1.92813
253 2 C 1.02872 4.41515 15.738
254 2 C 0.296865 5.71621 15.9174
255 4 O 1.1961 6.56673 16.6151
256 1 H 0.768812 3.72581 14.8996
257 1 H 2.07281 4.70496 15.7185
258 1 H 0.896903 3.78144 16.6256
259 1 H -0.743172 5.78572 16.2992
260 1 H 0.296688 6.0808 14.8956
261 1 H 0.706371 7.13674 17.1975
262 2 C 2.09451 -0.638849 0.555062
263 2 C 2.81498 -0.584614 1.92695
264 4 O 2.11883 18.0538 2.86272
265 1 H 2.30182 17.8107 0.0102416
266 1 H 0.99806 -0.768752 0.803959
267 1 H 2.26453 0.292471 0.00761211
268 1 H 2.81256 0.43707 2.32291
269 1 H 3.88549 -0.799994 1.95491
270 1 H 2.45043 17.1406 2.93829
271 2 C 13.2163 17.7073 -0.289276
272 2 C 14.5575 17.4157 -0.766855
273 4 O 15.2238 -0.695211 -1.0023
274 1 H 12.6405 -1.17859 -1.07908
275 1 H 12.6138 16.8017 -0.0539913
276 1 H 13.2545 18.3226 0.597646
277 1 H 14.5621 16.9572 17.6622
278 1 H 15.1586 16.9048 -0.0159683
279 1 H 14.6079 -0.0986229 17.8762
280 2 C 10.0393 1.01376 8.66548
281 2 C 9.05511 2.21782 8.41237
282 4 O 7.87772 1.99361 9.24417
283 1 H 9.61235 0.0122838 8.55442
284 1 H 10.9867 1.07049 8.10168
285 1 H 10.2838 1.08451 9.73292
286 1 H 8.77426 2.26355 7.39407
287 1 H 9.51181 3.17876 8.6647
288 1 H 7.30044 2.73903 9.13713
289 2 C 7.88743 6.5288 9.07515
290 2 C 7.05261 5.75399 8.06836
291 4 O 6.66949 4.44235 8.61204
292 1 H 8.72237 5.97572 9.42376
293 1 H 8.22207 7.44882 8.60711
294 1 H 7.27203 6.88097 9.91469
295 1 H 7.6351 5.64742 7.20821
296 1 H 6.1656 6.29 7.70259
297 1 H 6.36278 4.63272 9.54466
298 2 C 13.1797 14.2195 6.90771
299 2 C 13.4211 12.718 6.87866
300 4 O 12.6735 12.1345 5.85721
301 1 H 13.572 14.6946 7.83111
302 1 H 13.5944 14.6624 5.98268
303 1 H 12.0638 14.334 6.80901
304 1 H 13.2932 12.1205 7.78639
305 1 H 14.4612 12.5308 6.66191
306 1 H 11.7637 12.0067 6.13451
307 2 C 14.7719 6.56268 16.8053
308 2 C 15.4021 7.74766 16.1572
309 4 O 16.8069 7.55961 16.1264
310 1 H 14.8639 6.52442 17.87
311 1 H 13.6957 6.6261 16.5977
312 1 H 15.1813 5.68213 16.293
313 1 H 15.3002 8.64686 16.7105
314 1 H 15.082 7.95388 15.1393
315 1 H 17.2487 8.35283 15.831
316 2 C 0.286865 14.3658 6.81563
317 2 C 1.4597 13.49 7.19572
318 4 O 2.62329 14.1081 7.68826
319 1 H 0.415286 14.9681 5.91575
320 1 H -0.603455 13.698 6.64539
321 1 H 0.0873211 15.0598 7.64857
322 1 H 1.69611 12.8648 6.36485
323 1 H 1.14906 12.8523 7.98368
324 1 H 2.80735 14.8442 7.09217
325 2 C 15.3443 0.833541 9.13762
326 2 C 16.8541 0.623056 9.27086
327 4 O 17.4105 1.11961 10.5077
328 1 H 15.1164 1.71992 9.68314
329 1 H 15.1335 1.06646 8.07402
330 1 H 14.7137 -0.00439825 9.4531
331 1 H 17.3918 1.18057 8.52111
332 1 H 17.1702 -0.379144 9.06962
333 1 H 17.2914 0.444121 11.1781
334 2 C 2.33218 2.19608 9.92662
335 2 C 1.69622 2.19434 11.3271
336 4 O 0.253577 2.44697 11.3931
337 1 H 3.38976 2.26116 10.1526
338 1 H 2.21409 1.27456 9.38342
339 1 H 2.03844 3.02888 9.28023
340 1 H 2.14328 2.92938 11.9401
341 1 H 1.8614 1.21347 11.7913
342 1 H -0.296282 1.96577 10.7687
343 2 C 8.71355 15.9383 17.3192
344 2 C 9.08228 14.6992 18.2225
345 4 O 7.95856 13.9368 -0.813326
346 1 H 9.62182 16.5947 17.2283
347 1 H 8.43723 15.6323 16.3014
348 1 H 7.93374 16.4448 17.7532
349 1 H 9.48027 15.031 -0.247657
350 1 H 9.76609 14.1207 17.6542
351 1 H 7.42881 13.719 17.8102
352 2 C 4.68024 3.78061 13.0385
353 2 C 5.6763 4.53053 12.2823
354 4 O 5.27573 4.92342 10.9706
355 1 H 4.44084 2.84369 12.4966
356 1 H 5.19696 3.38838 13.9215
357 1 H 3.79975 4.30818 13.331
358 1 H 6.51599 3.85604 12.0811
359 1 H 5.97494 5.40009 12.8805
360 1 H 4.54634 5.57392 11.0313
361 2 C 10.738 16.714 10.3532
362 2 C 10.6733 15.2535 10.8595
363 4 O 11.3138 15.0115 12.0693
364 1 H 11.742 17.0588 10.1606
365 1 H 10.0591 16.8727 9.52235
366 1 H 10.3523 17.3613 11.1531
367 1 H 11.1287 14.5982 10.1479
368 1 H 9.62695 14.9398 10.9209
369 1 H 10.9327 15.6148 12.7322
370 2 C 13.7131 9.40615 12.4127
371 2 C 12.804 10.0347 11.3998
372 4 O 11.5477 10.4262 11.9076
373 1 H 14.7707 9.38812 12.104
374 1 H 13.6545 9.94126 13.3706
375 1 H 13.3546 8.36838 12.6453
376 1 H 12.549 9.39531 10.5834
377 1 H 13.3563 10.9059 10.957
378 1 H 11.6765 11.0637 12.604
379 2 C 1.75284 5.24572 1.91046
380 2 C 0.677126 5.63513 2.92766
381 4 O 0.397169 4.63848 3.84589
382 1 H 2.75526 5.00886 2.29317
383 1 H 1.54182 4.32319 1.33176
384 1 H 1.8995 6.0393 1.1863
385 1 H -0.267425 6.02372 2.52067
386 1 H 1.08789 6.4688 3.51544
387 1 H 1.11774 3.99936 3.85219
388 2 C 15.0658 14.5293 11.7564
389 2 C 14.8148 13.6521 12.8789
390 4 O 13.6115 12.9586 12.7394
391 1 H 16.0078 15.0307 11.8266
392 1 H 15.0139 13.9387 10.8472
393 1 H 14.2605 15.2529 11.8358
394 1 H 14.873 14.2002 13.8464
395 1 H 15.5615 12.875 12.9837
396 1 H 12.9966 13.4152 12.1503
397 2 C 0.210389 10.3487 12.7412
398 2 C 1.61243 10.9979 12.8868
399 4 O 2.50816 10.3883 11.9053
400 1 H 0.265476 9.3051 12.9461
401 1 H -0.565689 10.7653 13.3812
402 1 H -0.172226 10.5896 11.7366
403 1 H 1.99864 10.7648 13.8706
404 1 H 1.57353 12.0717 12.8067
405 1 H 3.41447 10.3328 12.272
406 2 C 6.10571 7.81663 16.1522
407 2 C 4.71095 7.38349 16.4584
408 4 O 3.76276 7.82659 15.5633
409 1 H 6.36169 7.36372 15.1612
410 1 H 6.11147 8.86803 15.9224
411 1 H 6.87047 7.6395 16.9308
412 1 H 4.32198 7.69955 17.3599
413 1 H 4.67452 6.29238 16.5679
414 1 H 2.90655 7.65011 16.0056
415 2 C 8.09322 7.24147 4.59473
416 2 C 8.61816 8.08525 5.80913
417 4 O 9.70703 8.83102 5.39783
418 1 H 7.2284 6.67208 4.93233
419 1 H 7.74823 7.96101 3.8262
420 1 H 8.94091 6.63543 4.22379
421 1 H 9.04139 7.39681 6.53696
422 1 H 7.77555 8.5891 6.32001
423 1 H 9.41487 9.68263 5.01186
424 2 C 4.51009 15.2991 5.04202
425 2 C 3.25521 14.7076 4.42159
426 4 O 2.97321 15.5288 3.28889
427 1 H 4.32632 16.2792 5.51432
428 1 H 4.9602 14.6576 5.79891
429 1 H 5.19583 15.3566 4.25508
430 1 H 2.37683 14.8671 5.11428
431 1 H 3.45426 13.6909 4.16959
432 1 H 2.45235 14.9362 2.77692
433 2 C 18.1061 4.49699 8.3499
434 2 C -0.477248 4.64008 7.10201
435 4 O 17.9688 4.95304 6.07902
436 1 H 17.2931 3.77786 8.24084
437 1 H -0.691311 4.05078 9.13872
438 1 H 17.6303 5.42574 8.64533
439 1 H 0.196532 3.842 6.73259
440 1 H 0.140738 5.50755 7.07994
441 1 H -1.01963 4.80071 5.14791
442 2 C 17.4116 3.46136 -1.1947
443 2 C 17.1945 2.89289 16.7525
444 4 O 15.9247 2.23986 16.6242
445 1 H 17.7691 2.55244 -0.677779
446 1 H -1.19933 4.22954 -1.19772
447 1 H 16.4623 3.76396 -0.732076
448 1 H 18.0333 2.2501 16.5213
449 1 H 17.1142 3.7084 16.0127
450 1 H 15.3107 2.8244 16.2218
ITEM: TIMESTEP
7300
ITEM: NUMBER OF ATOMS
450
ITEM: BOX BOUNDS pp pp pp
-1.1788436804439435e+00 1.8103843680444001e+01
-1.1788436804439435e+00 1.8103843680444001e+01
-1.1788436804439435e+00 1.8103843680444001e+01
ITEM: ATOMS id type element x y z
1 2 C 14.1491 17.4216 4.19722
2 2 C 12.9063 18.0843 4.92732
3 4 O 13.1904 0.0647464 5.57064
4 1 H 15.0619 17.5312 4.7645
5 1 H 13.9481 16.3605 4.13747
6 1 H 14.3749 -1.50487 3.18829
7 1 H 12.7266 17.359 5.74471
8 1 H 11.9919 -1.17475 4.33077
9 1 H 12.3851 0.260695 6.06548
10 2 C 12.3834 15.7871 15.7199
11 2 C 13.3678 14.6526 15.9672
12 4 O 12.7154 13.3599 15.8068
13 1 H 11.6035 15.3491 15.136
14 1 H 12.1097 16.2199 16.6703
15 1 H 12.8495 16.5554 15.0738
16 1 H 13.7546 14.7576 16.9817
17 1 H 14.1676 14.7579 15.22
18 1 H 13.2027 12.8349 15.1616
19 2 C 12.7888 4.5171 2.28133
20 2 C 14.1363 4.83155 1.72377
21 4 O 14.495 6.21519 2.10087
22 1 H 12.0662 5.24486 1.83115
23 1 H 12.4514 3.51658 2.00668
24 1 H 12.8178 4.58189 3.41409
25 1 H 14.0855 4.71207 0.651539
26 1 H 14.97 4.21201 1.98777
27 1 H 14.347 6.19712 3.05057
28 2 C -0.270456 8.07549 8.93137
29 2 C -0.761443 9.41997 8.42726
30 4 O 0.0535468 9.84289 7.32386
31 1 H 0.643818 8.21955 9.50477
32 1 H -1.03953 7.60946 9.56865
33 1 H -0.0862113 7.41267 8.0989
34 1 H -0.704625 10.101 9.30724
35 1 H 17.4788 9.39564 8.1727
36 1 H 0.910617 10.0206 7.74494
37 2 C -0.0217129 16.7705 14.5274
38 2 C 0.766382 17.8998 15.1949
39 4 O 1.84921 -1.1495 14.7694
40 1 H 0.651154 15.9997 14.2609
41 1 H -0.615398 16.3485 15.333
42 1 H -0.524628 17.1059 13.6575
43 1 H 0.397884 -0.939691 16.14
44 1 H 16.478 -1.0408 0.500178
45 1 H 6.16931 4.52003 6.48441
46 2 C 6.38088 13.7733 7.67308
47 2 C 7.20733 12.552 7.34615
48 4 O 7.10414 12.3348 5.94476
49 1 H 6.62326 14.2467 8.60159
50 1 H 6.44685 14.4734 6.8522
51 1 H 5.30216 13.6023 7.73163
52 1 H 6.85327 11.6652 7.85595
53 1 H 8.24296 12.7276 7.63545
54 1 H 7.73162 11.6259 5.77297
55 2 C 17.7078 4.9322 12.4269
56 2 C 16.2204 5.11828 12.4686
57 4 O 15.5922 5.50285 13.6694
58 1 H 17.9519 4.07995 13.0145
59 1 H 18.1043 4.78505 11.4107
60 1 H -1.23331 5.98911 12.7651
61 1 H 15.7313 4.16375 12.1816
62 1 H 15.9484 5.81844 11.6239
63 1 H 15.977 6.227 14.1709
64 2 C 10.6197 10.1426 8.27669
65 2 C 9.25285 10.13 8.95026
66 4 O 9.12375 9.30676 10.0319
67 1 H 10.8328 9.1104 7.91087
68 1 H 10.602 10.8132 7.42178
69 1 H 11.3339 10.4416 9.0522
70 1 H 8.52571 9.85671 8.20895
71 1 H 9.06363 11.178 9.22524
72 1 H 9.77763 9.50283 10.695
73 2 C 4.72991 2.06891 6.78706
74 2 C 3.96174 3.33665 6.48935
75 4 O 4.07074 4.27187 7.54901
76 1 H 5.7847 2.17957 6.52204
77 1 H 4.79302 2.06018 7.87314
78 1 H 4.26118 1.10976 6.4506
79 1 H 2.86634 3.18494 6.4678
80 1 H 4.2775 3.77033 5.49274
81 1 H 4.9539 4.21478 7.91958
82 2 C 7.25938 9.28018 12.9881
83 2 C 5.83997 8.80304 12.5827
84 4 O 4.77634 9.59904 13.0152
85 1 H 7.42398 9.47076 14.0414
86 1 H 8.10384 8.63913 12.5743
87 1 H 7.40053 10.2876 12.4772
88 1 H 5.73352 7.76887 12.9329
89 1 H 5.89684 8.75184 11.4455
90 1 H 4.58516 9.40477 13.9415
91 2 C 11.4561 3.96922 15.9167
92 2 C 12.7781 3.52982 16.5024
93 4 O 13.7489 3.24527 15.4684
94 1 H 11.1462 3.63895 14.8913
95 1 H 10.6847 3.45593 16.4876
96 1 H 11.5345 5.08409 15.9006
97 1 H 12.6741 2.58492 17.0244
98 1 H 13.0856 4.30424 17.221
99 1 H 14.0169 3.90208 14.7495
100 2 C 7.09163 12.9478 11.0511
101 2 C 6.04542 13.25 12.197
102 4 O 6.40046 14.4821 12.7726
103 1 H 8.03031 12.8043 11.6088
104 1 H 6.81155 12.0194 10.508
105 1 H 7.27224 13.7603 10.3516
106 1 H 6.11758 12.3949 12.887
107 1 H 5.00871 13.2982 11.908
108 1 H 5.90416 14.5714 13.6099
109 2 C 0.168859 -0.358556 6.55378
110 2 C 1.52368 -1.08064 6.36929
111 4 O 1.40215 17.122 5.54535
112 1 H -0.100033 0.141898 5.61644
113 1 H -0.661698 18.2253 6.58394
114 1 H 0.212192 0.427364 7.30644
115 1 H 1.86211 17.9054 7.36127
116 1 H 2.27425 -0.345731 6.08207
117 1 H 1.52796 17.3645 4.64429
118 2 C 4.62917 10.1427 9.05047
119 2 C 3.53854 11.2676 8.79602
120 4 O 2.18706 10.7913 8.84349
121 1 H 4.94297 9.78334 8.04905
122 1 H 5.42705 10.5926 9.6604
123 1 H 4.08367 9.38304 9.61206
124 1 H 3.68565 11.6797 7.77974
125 1 H 3.66356 12.0945 9.54635
126 1 H 2.02984 10.4901 9.73829
127 2 C 5.19893 18.0646 15.0305
128 2 C 4.65524 16.9234 15.8207
129 4 O 4.3975 15.7179 15.0184
130 1 H 4.4259 -0.801594 14.3864
131 1 H 5.67545 -0.388448 15.6292
132 1 H 5.98015 17.6045 14.4237
133 1 H 3.71732 17.1793 16.3824
134 1 H 5.34694 16.5363 16.5774
135 1 H 3.44845 15.6633 14.8744
136 2 C 7.76169 11.5417 1.86365
137 2 C 8.1984 10.4716 2.82925
138 4 O 8.88527 11.0207 3.9954
139 1 H 8.53585 12.1387 1.36669
140 1 H 7.27633 11.0279 1.0204
141 1 H 6.98862 12.1713 2.32896
142 1 H 8.91693 9.70472 2.43787
143 1 H 7.31762 9.96444 3.15807
144 1 H 8.73744 11.989 3.93644
145 2 C 8.43539 15.552 3.20987
146 2 C 9.64051 14.6722 3.01608
147 4 O 10.3866 14.5963 4.28298
148 1 H 7.98333 15.7278 2.19997
149 1 H 7.75427 15.1536 3.96908
150 1 H 8.82686 16.5355 3.49862
151 1 H 10.3365 14.982 2.21649
152 1 H 9.20537 13.6812 2.71491
153 1 H 11.0368 13.8708 4.16784
154 2 C 15.7814 -0.710047 14.2035
155 2 C 16.7736 0.446284 14.1861
156 4 O 17.9283 0.118427 13.4278
157 1 H 16.332 17.6319 14.2611
158 1 H 15.0955 -0.638884 15.0331
159 1 H 15.1392 -0.724542 13.3266
160 1 H 17.0902 0.62353 15.1985
161 1 H 16.3272 1.34887 13.7573
162 1 H -0.814224 0.889528 13.181
163 2 C 16.7351 8.52557 5.94761
164 2 C 15.7272 9.65347 5.91916
165 4 O 14.4396 9.17116 6.21906
166 1 H 16.6491 7.89271 5.06519
167 1 H 17.7389 8.88705 5.98312
168 1 H 16.6912 7.87038 6.80724
169 1 H 15.7516 10.1564 4.96757
170 1 H 16.0635 10.4049 6.65028
171 1 H 13.9494 9.86808 6.65692
172 2 C 14.0902 10.0323 -0.361267
173 2 C 15.2047 10.7252 -1.092
174 4 O 15.9429 11.5113 -0.0794471
175 1 H 14.6042 9.30663 0.318324
176 1 H 13.5587 10.7695 0.285627
177 1 H 13.3195 9.51759 -0.956683
178 1 H 14.8729 11.3569 17.3574
179 1 H 15.8562 9.94468 17.745
180 1 H 16.8299 11.8003 -0.365973
181 2 C 17.4721 2.18005 3.07924
182 2 C 16.1412 2.45233 3.79548
183 4 O 16.1862 3.77012 4.35069
184 1 H 17.7134 3.06876 2.48871
185 1 H -1.12517 1.80618 3.83272
186 1 H 17.362 1.42552 2.28472
187 1 H 15.9973 1.63335 4.49148
188 1 H 15.2338 2.60103 3.22801
189 1 H 15.3294 4.01103 4.70419
190 2 C 6.05052 17.0055 9.34094
191 2 C 6.90429 -1.06232 9.27197
192 4 O 6.59287 -0.432421 8.07155
193 1 H 6.02745 16.4827 8.38212
194 1 H 6.33586 16.3495 10.1633
195 1 H 5.00668 17.3489 9.3729
196 1 H 8.05709 17.941 9.29473
197 1 H 6.7728 -0.476001 10.1921
198 1 H 6.8759 0.485064 8.21582
199 2 C 8.33175 -0.172529 12.7895
200 2 C 7.75096 17.8138 12.4734
201 4 O 8.11639 16.8807 13.5073
202 1 H 8.32022 0.586745 11.9856
203 1 H 7.8297 0.395481 13.5788
204 1 H 9.40014 -0.278539 12.9592
205 1 H 8.21876 17.3906 11.6189
206 1 H 6.68823 17.8173 12.3633
207 1 H 7.69394 16.0044 13.3293
208 2 C 2.11382 10.3755 4.69567
209 2 C 2.05557 10.0202 3.17269
210 4 O 2.75802 10.9285 2.33515
211 1 H 3.12205 10.6613 5.02227
212 1 H 1.43966 11.2085 4.96553
213 1 H 1.72613 9.47381 5.1625
214 1 H 0.967744 10.0589 2.92736
215 1 H 2.3574 9.00754 2.94023
216 1 H 2.54518 10.6042 1.44983
217 2 C -0.0440547 10.0758 0.162944
218 2 C -0.322404 9.29647 -1.10202
219 4 O -0.660847 7.92113 -0.814295
220 1 H -0.940313 10.0497 0.747349
221 1 H 0.815746 9.66542 0.667898
222 1 H 0.202696 11.0637 -0.0426705
223 1 H 0.513631 9.37018 17.4706
224 1 H -1.13956 9.76266 17.6323
225 1 H 17.772 7.61597 -1.18097
226 2 C 14.2252 5.07725 7.78476
227 2 C 13.3258 4.98589 6.5765
228 4 O 13.7974 5.48812 5.3073
229 1 H 14.5709 6.15601 7.85057
230 1 H 13.7782 4.8266 8.7292
231 1 H 15.1668 4.55653 7.77531
232 1 H 12.3544 5.38403 6.85425
233 1 H 13.0894 3.96043 6.29481
234 1 H 14.0812 6.40023 5.37191
235 2 C -1.19033 16.7954 2.85336
236 2 C 16.9965 17.5683 2.19755
237 4 O 17.3265 18.0587 0.921072
238 1 H -0.92247 15.8122 2.33838
239 1 H -0.290448 17.4195 2.83503
240 1 H 17.7682 16.6763 3.851
241 1 H 16.8952 -0.953426 2.99649
242 1 H 16.1117 16.9495 2.03581
243 1 H 17.1667 4.75233 5.44464
244 2 C 14.7187 13.1865 3.08602
245 2 C 13.4881 13.7631 2.42229
246 4 O 12.271 13.1354 2.96185
247 1 H 15.2861 12.3885 2.63815
248 1 H 15.255 14.1174 3.643
249 1 H 14.2755 12.7061 3.947
250 1 H 13.4563 13.8575 1.19424
251 1 H 13.2743 14.8273 2.86549
252 1 H 11.6409 12.9679 2.25619
253 2 C 1.3681 4.40889 15.4563
254 2 C 0.688294 5.74324 15.7487
255 4 O 1.36309 6.54638 16.7088
256 1 H 0.588395 3.71779 15.1104
257 1 H 2.01117 4.4893 14.6033
258 1 H 1.85981 3.83702 16.2461
259 1 H -0.30324 5.67578 16.1413
260 1 H 0.603477 6.24138 14.7548
261 1 H 0.700805 6.54284 17.4148
262 2 C 2.12431 -0.568659 0.610743
263 2 C 2.77382 -0.457099 1.97069
264 4 O 2.19583 17.9567 2.95591
265 1 H 1.7718 17.7098 0.551826
266 1 H 1.26193 0.071281 0.474854
267 1 H 2.82159 -0.345911 -0.176003
268 1 H 2.70025 0.550259 2.39675
269 1 H 3.83881 -0.661525 1.93096
270 1 H 2.52385 17.0606 2.78609
271 2 C 13.2747 17.6169 -0.0220361
272 2 C 14.5352 17.6525 -1.03164
273 4 O 15.3661 -0.450604 -0.891004
274 1 H 12.4401 18.1215 -0.494745
275 1 H 13.0086 16.5568 0.118825
276 1 H 13.477 -1.31579 0.98562
277 1 H 14.1856 17.6483 17.1914
278 1 H 15.1419 16.7781 -0.873598
279 1 H 15.571 -0.000690589 17.5826
280 2 C 9.78851 0.854861 8.58542
281 2 C 8.97854 2.06367 8.53218
282 4 O 7.76886 1.96114 9.26096
283 1 H 9.26965 -0.0302593 8.28866
284 1 H 10.6903 1.05604 8.0264
285 1 H 10.0798 0.684821 9.62387
286 1 H 8.71537 2.29638 7.45733
287 1 H 9.55548 2.88325 8.98161
288 1 H 7.23631 2.77002 9.03305
289 2 C 7.68565 6.40314 9.39355
290 2 C 7.19961 5.51936 8.26864
291 4 O 6.52088 4.34586 8.66543
292 1 H 8.63979 6.11447 9.85268
293 1 H 7.79809 7.43015 9.0796
294 1 H 6.90619 6.37727 10.1208
295 1 H 7.95376 5.20181 7.51618
296 1 H 6.48958 6.10016 7.67693
297 1 H 6.05837 4.64775 9.482
298 2 C 13.6056 14.2852 7.00205
299 2 C 13.4758 12.7392 7.15583
300 4 O 12.9844 12.1795 5.91571
301 1 H 14.2296 14.589 7.83104
302 1 H 14.1139 14.4014 6.06149
303 1 H 12.6179 14.7173 7.02453
304 1 H 12.8327 12.4213 7.97823
305 1 H 14.4916 12.376 7.43908
306 1 H 12.3252 11.4914 6.12113
307 2 C 14.6118 6.61752 16.9182
308 2 C 15.1786 7.66531 16.0483
309 4 O 16.65 7.71604 16.1258
310 1 H 15.0673 6.73011 17.8858
311 1 H 13.5478 6.7389 17.0852
312 1 H 14.784 5.61104 16.4907
313 1 H 14.8137 8.64599 16.3091
314 1 H 14.8886 7.65039 14.9856
315 1 H 16.9855 8.39788 15.5599
316 2 C 0.312633 14.4646 7.0503
317 2 C 1.44193 13.4274 7.14433
318 4 O 2.61986 14.0496 7.67413
319 1 H 0.626846 15.2861 6.41895
320 1 H -0.633222 14.1593 6.65243
321 1 H 0.0784603 14.7786 8.06573
322 1 H 1.65295 12.9781 6.14786
323 1 H 1.17356 12.6226 7.8163
324 1 H 2.50745 14.9939 7.48735
325 2 C 15.3453 1.03581 9.18868
326 2 C 16.8163 0.547995 9.13197
327 4 O 17.4605 0.708123 10.3714
328 1 H 15.3177 2.11802 8.95734
329 1 H 14.7127 0.422562 8.56877
330 1 H 15.0456 0.902429 10.2148
331 1 H 17.4368 1.26948 8.55846
332 1 H 16.8713 -0.493613 8.71008
333 1 H 17.1815 0.106106 11.1043
334 2 C 2.13914 1.9402 9.80233
335 2 C 1.66813 1.96964 11.2367
336 4 O 0.299367 2.19066 11.3034
337 1 H 3.22034 1.77655 9.75178
338 1 H 1.56825 1.11953 9.28974
339 1 H 1.95401 2.89671 9.25257
340 1 H 2.09986 2.82247 11.7711
341 1 H 1.93239 1.08293 11.8315
342 1 H -0.312512 1.65627 10.7538
343 2 C 8.47265 15.9569 17.8054
344 2 C 9.14347 14.7236 -0.811511
345 4 O 8.16384 13.6536 -0.56645
346 1 H 9.35744 16.4721 17.3913
347 1 H 7.75267 15.5797 17.0042
348 1 H 7.81683 16.5377 -0.729764
349 1 H 9.49606 15.0808 0.21235
350 1 H 9.90273 14.3962 17.7466
351 1 H 8.05241 13.1552 17.9204
352 2 C 4.78989 3.82897 12.9823
353 2 C 5.75086 4.58824 11.9936
354 4 O 5.05377 5.07598 10.8617
355 1 H 4.44656 2.98543 12.3947
356 1 H 5.14434 3.4479 13.9218
357 1 H 3.87425 4.43891 13.1702
358 1 H 6.55866 3.95113 11.5922
359 1 H 6.21126 5.40984 12.5283
360 1 H 4.52389 5.85785 11.0439
361 2 C 10.7799 16.4395 10.298
362 2 C 10.5803 15.0988 10.9069
363 4 O 11.4248 14.9597 12.122
364 1 H 11.8187 16.7301 10.3334
365 1 H 10.4946 16.3483 9.25762
366 1 H 10.1332 17.2248 10.7222
367 1 H 10.9554 14.3537 10.1767
368 1 H 9.52658 14.8548 11.0863
369 1 H 10.9098 15.3867 12.8252
370 2 C 13.5741 9.30742 12.6668
371 2 C 12.8457 10.1458 11.5986
372 4 O 11.3801 10.1039 11.7782
373 1 H 14.6229 9.1519 12.4512
374 1 H 13.5819 9.77015 13.6641
375 1 H 13.0705 8.35504 12.7203
376 1 H 12.9347 9.72109 10.6041
377 1 H 13.1804 11.1795 11.6509
378 1 H 11.2103 10.4476 12.646
379 2 C 1.91673 5.36167 2.43342
380 2 C 0.542368 5.73384 2.8468
381 4 O 0.12346 4.69039 3.81901
382 1 H 2.5973 5.61577 3.27686
383 1 H 1.97978 4.29024 2.29176
384 1 H 2.37241 5.79868 1.56383
385 1 H -0.217234 5.85098 2.07271
386 1 H 0.56082 6.6598 3.37967
387 1 H -0.781513 4.44038 3.60169
388 2 C 15.3705 14.5907 11.5655
389 2 C 14.8511 13.4692 12.6408
390 4 O 13.5203 12.9789 12.4371
391 1 H 16.2107 15.0502 12.0649
392 1 H 15.7242 14.096 10.646
393 1 H 14.6033 15.3353 11.3183
394 1 H 14.8385 13.9422 13.6112
395 1 H 15.571 12.6465 12.5857
396 1 H 12.9335 13.7589 12.2747
397 2 C 0.36487 10.5634 12.6518
398 2 C 1.78861 10.9542 12.5492
399 4 O 2.43006 10.0763 11.7115
400 1 H 0.331458 9.61452 13.2248
401 1 H -0.168354 11.2885 13.2482
402 1 H -0.151573 10.4367 11.7103
403 1 H 2.19409 10.9481 13.5755
404 1 H 1.96746 12.0231 12.3044
405 1 H 3.27183 9.81973 12.1026
406 2 C 6.23125 7.83417 15.9574
407 2 C 4.90255 7.1582 16.4805
408 4 O 3.84223 7.75105 15.7162
409 1 H 6.54186 7.4548 15.0188
410 1 H 6.33836 8.91747 16.0114
411 1 H 6.99018 7.41182 16.6388
412 1 H 4.64194 7.22859 17.6117
413 1 H 5.01645 6.09735 16.1926
414 1 H 2.98744 7.52907 16.1146
415 2 C 8.04303 7.00403 4.89844
416 2 C 8.61453 8.0146 5.88883
417 4 O 9.80427 8.69867 5.46648
418 1 H 7.00131 6.94491 5.13488
419 1 H 8.15885 7.3952 3.89291
420 1 H 8.4999 6.01606 4.95966
421 1 H 8.91022 7.52429 6.8214
422 1 H 7.81817 8.67522 6.1968
423 1 H 9.50357 9.47087 4.97234
424 2 C 4.48138 15.4343 4.97446
425 2 C 3.29342 14.7255 4.304
426 4 O 3.13963 15.2992 2.97732
427 1 H 4.55419 16.4092 4.55374
428 1 H 4.36119 15.5713 6.04711
429 1 H 5.44363 14.8995 4.85456
430 1 H 2.27897 14.9414 4.79008
431 1 H 3.40376 13.6394 4.18519
432 1 H 2.28189 14.9822 2.65978
433 2 C -1.20533 4.78075 8.25732
434 2 C -0.641251 4.50285 6.87926
435 4 O 17.8923 5.31291 5.88289
436 1 H 17.3712 4.01988 8.58692
437 1 H -0.41256 4.80369 9.02733
438 1 H 17.6474 5.79818 8.35383
439 1 H -0.967096 3.54666 6.5864
440 1 H 0.397683 4.6354 6.60389
441 1 H -0.729444 5.44207 5.13554
442 2 C 17.2643 3.70378 17.8985
443 2 C 17.1335 3.00709 16.5723
444 4 O 16.0298 2.14018 16.4899
445 1 H 17.2651 2.97101 -0.575504
446 1 H 18.2344 4.18017 17.8238
447 1 H 16.4344 4.34619 -1.15257
448 1 H 18.0378 2.36603 16.5233
449 1 H 17.2163 3.70701 15.7391
450 1 H 15.193 2.58409 16.1651
ITEM: TIMESTEP
7400
ITEM: NUMBER OF ATOMS
450
ITEM: BOX BOUNDS pp pp pp
-1.1231809394436461e+00 1.8048180939443704e+01
-1.1231809394436461e+00 1.8048180939443704e+01
-1.1231809394436461e+00 1.8048180939443704e+01
ITEM: ATOMS id type element x y z
1 2 C 13.9415 17.0263 4.77414
2 2 C 12.7359 17.8079 5.09575
3 4 O 13.288 -0.255101 5.8144
4 1 H 14.499 16.7326 5.69428
5 1 H 13.6424 16.073 4.3045
6 1 H 14.6202 17.5889 4.12122
7 1 H 12.0189 17.2643 5.6989
8 1 H 12.1994 -1.00358 4.21466
9 1 H 12.563 0.301346 6.12196
10 2 C 12.377 15.6274 15.8584
11 2 C 13.3507 14.4379 15.7802
12 4 O 12.7481 13.1634 15.8636
13 1 H 11.8191 15.6993 14.9059
14 1 H 11.7794 15.4788 16.7535
15 1 H 12.9159 16.5548 16.0183
16 1 H 14.078 14.5305 16.5672
17 1 H 13.9289 14.5058 14.8399
18 1 H 12.1863 13.0526 15.0999
19 2 C 12.9256 4.61841 2.45991
20 2 C 14.2775 4.94036 1.8019
21 4 O 14.8073 6.18371 2.01911
22 1 H 12.4334 5.56677 2.57403
23 1 H 12.3668 3.97625 1.78704
24 1 H 13.0056 4.19556 3.42826
25 1 H 14.024 4.93541 0.712202
26 1 H 15.0616 4.21494 1.99766
27 1 H 15.154 6.27549 2.92437
28 2 C -0.257988 8.39667 8.92873
29 2 C -0.600488 9.8311 8.44584
30 4 O 0.22692 10.1991 7.37218
31 1 H 0.772218 8.32804 9.34101
32 1 H -0.989985 8.13368 9.71304
33 1 H -0.31974 7.72903 8.10183
34 1 H -0.608176 10.5012 9.28696
35 1 H 17.5325 9.76283 8.03887
36 1 H 1.12675 10.2055 7.72161
37 2 C -0.194049 16.7819 14.6802
38 2 C 0.668949 18.0025 15.1154
39 4 O 1.89081 18.0199 15.086
40 1 H 0.546736 15.9596 14.662
41 1 H -1.07332 16.6288 15.3433
42 1 H -0.410118 16.8943 13.5666
43 1 H 0.14207 -0.385551 15.5686
44 1 H 16.5418 -0.706113 0.403113
45 1 H 6.56886 4.10253 6.69493
46 2 C 6.31279 14.0314 7.41821
47 2 C 7.2878 12.8996 7.261
48 4 O 7.06394 12.2134 6.03396
49 1 H 6.18151 14.3394 8.45119
50 1 H 6.55947 14.9542 6.90189
51 1 H 5.3034 13.7703 7.08607
52 1 H 7.04003 12.1095 7.98567
53 1 H 8.33851 13.1571 7.42328
54 1 H 7.85504 12.2487 5.49058
55 2 C 17.8845 5.11437 12.5265
56 2 C 16.2809 5.24166 12.2539
57 4 O 15.5903 5.39946 13.5892
58 1 H 18.1187 4.24912 13.1499
59 1 H -0.817904 4.7718 11.577
60 1 H -0.923992 5.98835 12.9628
61 1 H 15.8637 4.32404 11.8133
62 1 H 16.0363 6.15412 11.7211
63 1 H 16.3463 5.43018 14.1608
64 2 C 10.6033 10.247 8.39545
65 2 C 9.10667 10.2616 8.84902
66 4 O 8.8746 9.50692 10.0275
67 1 H 11.1143 9.31064 8.6244
68 1 H 10.6629 10.3909 7.28999
69 1 H 11.1222 11.0992 8.80637
70 1 H 8.52847 9.76462 8.07351
71 1 H 8.75393 11.2857 8.90831
72 1 H 9.6727 9.59939 10.5975
73 2 C 4.83143 1.795 6.77785
74 2 C 4.10795 3.09597 6.41157
75 4 O 4.04279 3.96244 7.53431
76 1 H 5.84146 2.00685 7.05983
77 1 H 4.45047 1.22687 7.62339
78 1 H 4.73047 1.19095 5.8834
79 1 H 3.10815 2.91756 6.06873
80 1 H 4.58275 3.51041 5.53984
81 1 H 4.92896 3.96047 7.93087
82 2 C 7.11819 9.09508 12.9499
83 2 C 5.80534 8.75013 12.3083
84 4 O 4.72565 9.32962 13.0744
85 1 H 7.17514 8.83391 13.948
86 1 H 7.93471 8.55231 12.4916
87 1 H 7.26997 10.1534 12.9228
88 1 H 5.73235 7.67111 12.3019
89 1 H 5.80138 9.1407 11.2815
90 1 H 4.61978 8.91953 13.9372
91 2 C 11.7007 4.26191 15.7051
92 2 C 12.938 3.63508 16.4383
93 4 O 13.933 3.31024 15.4885
94 1 H 11.2545 3.40244 15.2609
95 1 H 10.8371 4.57554 16.2697
96 1 H 11.9689 5.03133 14.9564
97 1 H 12.4885 2.78091 16.9411
98 1 H 13.4423 4.20703 17.1576
99 1 H 14.0271 4.0695 14.9048
100 2 C 7.1644 13.0317 11.1438
101 2 C 6.18852 13.4011 12.2111
102 4 O 6.74487 14.3524 13.1288
103 1 H 8.12359 12.7879 11.5182
104 1 H 6.74772 12.1747 10.6002
105 1 H 7.28289 13.8732 10.4718
106 1 H 5.8942 12.4824 12.7087
107 1 H 5.23261 13.8074 11.7646
108 1 H 6.03005 14.9814 13.38
109 2 C 0.24756 -0.0727278 6.54283
110 2 C 1.45773 -0.971032 6.54635
111 4 O 1.43706 17.3408 5.41644
112 1 H 0.523588 0.713633 5.78319
113 1 H -0.69892 -0.616003 6.31586
114 1 H 0.160878 0.588971 7.39056
115 1 H 1.35092 17.5288 7.42902
116 1 H 2.29243 -0.295249 6.7344
117 1 H 1.59531 17.9154 4.60982
118 2 C 4.72982 10.352 8.99449
119 2 C 3.56503 11.3255 8.76313
120 4 O 2.31482 10.7186 8.94176
121 1 H 5.16146 10.156 8.02657
122 1 H 5.48744 10.8426 9.56998
123 1 H 4.40997 9.39461 9.41173
124 1 H 3.54288 11.7059 7.74276
125 1 H 3.59225 12.238 9.38874
126 1 H 2.34424 10.3099 9.83781
127 2 C 5.03642 17.9368 14.9308
128 2 C 4.66273 16.6621 15.7271
129 4 O 4.34295 15.6383 14.8163
130 1 H 4.41906 17.948 14.0611
131 1 H 4.75444 -0.400178 15.5144
132 1 H 6.09839 17.992 14.7333
133 1 H 3.7968 16.8924 16.3196
134 1 H 5.35651 16.252 16.4299
135 1 H 3.88126 16.1099 14.1252
136 2 C 7.588 11.2546 2.10636
137 2 C 8.27545 10.3998 3.1337
138 4 O 9.05401 11.0812 4.11399
139 1 H 8.28981 11.8738 1.51864
140 1 H 6.98693 10.5726 1.50628
141 1 H 6.8983 11.9732 2.52886
142 1 H 8.81764 9.57322 2.78638
143 1 H 7.43097 10.0068 3.76392
144 1 H 9.72844 11.5411 3.60769
145 2 C 8.31657 15.4215 3.02299
146 2 C 9.68602 14.7948 2.82947
147 4 O 10.2711 14.6188 4.04727
148 1 H 7.90967 15.5265 2.03085
149 1 H 7.70523 14.8572 3.71796
150 1 H 8.37345 16.3933 3.41497
151 1 H 10.3899 15.4225 2.27862
152 1 H 9.61048 13.8935 2.24945
153 1 H 10.9729 13.9915 3.94858
154 2 C 15.5105 -0.736144 14.3184
155 2 C 16.6302 0.316452 14.1582
156 4 O 17.4533 0.038332 13.0362
157 1 H 15.863 17.5128 14.7943
158 1 H 14.6779 -0.300943 14.9055
159 1 H 15.0614 -0.931852 13.3524
160 1 H 17.1664 0.323433 15.0828
161 1 H 16.167 1.28931 14.0494
162 1 H -1.017 0.676955 12.9017
163 2 C 16.7713 8.5649 5.45375
164 2 C 15.8556 9.74784 5.6412
165 4 O 14.5678 9.30952 6.20606
166 1 H 16.4747 7.88669 4.66155
167 1 H 17.8279 8.80686 5.31166
168 1 H 16.7708 8.01601 6.39777
169 1 H 15.6409 10.2392 4.67461
170 1 H 16.3213 10.4567 6.34762
171 1 H 13.9141 9.9948 5.99907
172 2 C 14.0409 10.4517 -0.578235
173 2 C 15.4225 11.075 -1.04702
174 4 O 16.0176 11.932 -0.0248395
175 1 H 14.2668 9.96354 0.345055
176 1 H 13.1495 11.0758 -0.428254
177 1 H 13.802 9.61601 17.9602
178 1 H 15.204 11.7615 17.2962
179 1 H 16.0791 10.3037 17.8131
180 1 H 15.4076 12.6755 0.207312
181 2 C 17.1939 2.29469 2.96108
182 2 C 16.0068 2.42165 3.92378
183 4 O 16.0463 3.83657 4.46972
184 1 H 16.9252 2.50668 1.90686
185 1 H 17.9477 2.94504 3.3587
186 1 H 17.5512 1.26469 2.87103
187 1 H 16.2738 1.76013 4.76647
188 1 H 14.9685 2.35829 3.65681
189 1 H 15.2902 4.07113 5.02732
190 2 C 5.55599 17.018 9.37497
191 2 C 6.73903 17.9475 9.09024
192 4 O 6.3545 -0.257158 8.14331
193 1 H 5.15957 16.5904 8.44129
194 1 H 5.79569 16.2449 10.1131
195 1 H 4.7812 17.6633 9.8154
196 1 H 7.55971 17.4011 8.77271
197 1 H 7.01144 -0.83307 10.073
198 1 H 6.79899 0.55303 8.44311
199 2 C 8.12984 -0.203342 12.941
200 2 C 7.76438 17.4865 12.6427
201 4 O 8.12299 16.5908 13.715
202 1 H 7.95144 0.374288 12.0479
203 1 H 7.47315 0.264623 13.6886
204 1 H 9.15674 0.0138103 13.1645
205 1 H 8.23053 17.1459 11.6781
206 1 H 6.65726 17.5338 12.4829
207 1 H 8.07214 15.675 13.3832
208 2 C 2.20408 10.571 4.68926
209 2 C 2.36315 9.97814 3.27292
210 4 O 2.85229 11.0445 2.42875
211 1 H 3.19709 10.7637 5.07361
212 1 H 1.56494 11.4627 4.61536
213 1 H 1.70373 9.84345 5.31859
214 1 H 1.42341 9.55628 2.96908
215 1 H 3.05087 9.10604 3.21607
216 1 H 3.05812 10.591 1.60157
217 2 C 0.161787 10.1851 0.0884458
218 2 C -0.21687 9.51959 17.9542
219 4 O -0.282135 8.07417 -1.10447
220 1 H -0.700311 10.002 0.788082
221 1 H 1.11491 9.77164 0.48709
222 1 H 0.214985 11.2968 0.0209879
223 1 H 0.497985 9.82948 17.1766
224 1 H 18.0033 9.92332 17.6327
225 1 H 18.0387 7.68061 17.8739
226 2 C 13.9499 5.06992 7.7707
227 2 C 13.0012 4.95707 6.61608
228 4 O 13.7614 5.3041 5.49263
229 1 H 14.3337 6.02571 7.99112
230 1 H 13.5516 4.60439 8.67296
231 1 H 14.8041 4.38489 7.58634
232 1 H 12.1935 5.67226 6.72962
233 1 H 12.5827 3.92703 6.58436
234 1 H 13.7755 6.27592 5.53339
235 2 C 17.9255 16.9852 3.0741
236 2 C 16.7855 17.5021 2.11759
237 4 O 17.2937 -0.936668 0.995033
238 1 H -0.55828 16.415 2.52702
239 1 H -0.700058 17.8148 3.48447
240 1 H 17.4702 16.4098 3.90083
241 1 H 16.216 -0.988047 2.78993
242 1 H 16.0465 16.7708 1.7333
243 1 H 16.9062 5.21525 5.59668
244 2 C 14.7275 13.1172 3.0131
245 2 C 13.4239 13.5853 2.34568
246 4 O 12.2239 12.8761 2.80646
247 1 H 14.9455 12.0865 2.64299
248 1 H 15.5303 13.8739 2.7448
249 1 H 14.6997 12.9239 4.16265
250 1 H 13.5295 13.1703 1.41971
251 1 H 13.0445 14.5408 2.35592
252 1 H 12.5773 12.4625 3.60545
253 2 C 1.66591 4.57803 15.2272
254 2 C 0.852287 5.80175 15.6218
255 4 O 1.6484 6.45669 16.708
256 1 H 1.24826 4.03831 14.3992
257 1 H 2.74747 4.66702 14.9714
258 1 H 1.53339 3.91472 16.0723
259 1 H -0.0523454 5.5246 16.1786
260 1 H 0.581847 6.49556 14.8305
261 1 H 0.955509 6.93527 17.1876
262 2 C 2.08556 -0.549722 0.700495
263 2 C 2.82796 -0.374199 2.00834
264 4 O 2.3293 17.8931 3.02336
265 1 H 2.32986 17.6255 0.257197
266 1 H 1.03891 -0.314749 0.744827
267 1 H 2.53222 0.16777 -0.0402917
268 1 H 2.70067 0.6263 2.39321
269 1 H 3.87921 -0.663773 1.82698
270 1 H 2.44587 17.0092 2.64807
271 2 C 13.6133 17.4765 -0.052989
272 2 C 14.4808 18.0161 18.0118
273 4 O 15.2828 -0.119171 -0.683876
274 1 H 13.328 -0.748196 0.469554
275 1 H 12.7946 16.9211 -0.484432
276 1 H 14.1859 16.7724 0.591122
277 1 H 13.8455 -0.835489 17.1805
278 1 H 15.0114 17.1527 17.5335
279 1 H 15.6161 0.390271 17.7558
280 2 C 9.64379 0.685837 8.52807
281 2 C 8.96306 2.0767 8.56269
282 4 O 7.70949 1.91432 9.15181
283 1 H 9.2042 0.177421 7.65419
284 1 H 10.7316 0.791153 8.38817
285 1 H 9.47605 0.0864174 9.42963
286 1 H 8.91012 2.50221 7.58603
287 1 H 9.52343 2.80394 9.15567
288 1 H 7.16988 2.68886 9.05692
289 2 C 7.70639 6.31293 9.64203
290 2 C 7.26061 5.49034 8.48866
291 4 O 6.47183 4.36442 8.88448
292 1 H 8.00718 5.63432 10.4977
293 1 H 8.56809 6.94654 9.40509
294 1 H 6.87963 6.92987 10.0308
295 1 H 8.12036 5.00784 7.96244
296 1 H 6.60453 6.08245 7.87246
297 1 H 5.79204 4.79387 9.42913
298 2 C 13.9981 14.2585 7.08257
299 2 C 13.5351 12.8101 7.35198
300 4 O 13.2174 12.0132 6.18688
301 1 H 14.1033 14.6374 8.08972
302 1 H 14.9571 14.2039 6.56884
303 1 H 13.207 14.7481 6.5626
304 1 H 12.6232 12.8811 7.94971
305 1 H 14.3456 12.3318 7.86898
306 1 H 12.3834 12.3875 5.85641
307 2 C 14.5421 6.69993 17.0601
308 2 C 14.9484 7.65637 15.9234
309 4 O 16.3637 7.8131 16.0074
310 1 H 14.7404 7.22333 18.0264
311 1 H 13.4984 6.43219 16.9658
312 1 H 15.1212 5.79554 17.0979
313 1 H 14.3667 8.60287 16.0397
314 1 H 14.71 7.22579 14.9419
315 1 H 16.7325 8.42151 15.3695
316 2 C 0.176229 14.3644 7.35002
317 2 C 1.36839 13.5161 7.10838
318 4 O 2.59 14.0749 7.66787
319 1 H 0.235851 15.3077 6.77942
320 1 H -0.707481 13.8369 7.01092
321 1 H -0.0646964 14.5789 8.3941
322 1 H 1.48991 13.3952 6.00499
323 1 H 1.21683 12.5183 7.57302
324 1 H 2.28216 14.8294 8.18048
325 2 C 15.3909 1.19714 9.27403
326 2 C 16.6583 0.368212 9.03803
327 4 O 17.5423 0.372739 10.17
328 1 H 15.7089 2.25866 9.30211
329 1 H 14.722 0.932795 8.45429
330 1 H 14.9581 0.946471 10.2504
331 1 H 17.2254 0.726366 8.19819
332 1 H 16.3199 -0.614528 8.84681
333 1 H 17.0331 0.104554 10.9529
334 2 C 1.93525 1.69436 9.6652
335 2 C 1.65781 1.72371 11.1576
336 4 O 0.304374 2.10113 11.4618
337 1 H 2.94207 1.3982 9.41566
338 1 H 1.21082 1.07472 9.19954
339 1 H 1.87769 2.68845 9.31954
340 1 H 2.34093 2.42285 11.697
341 1 H 1.78442 0.766871 11.6406
342 1 H -0.286848 1.74874 10.8127
343 2 C 8.2295 15.8644 -0.943651
344 2 C 9.15794 14.708 -0.630895
345 4 O 8.47637 13.5109 -0.310127
346 1 H 8.73333 16.768 -0.837162
347 1 H 7.89337 15.6881 17.2764
348 1 H 7.37413 15.7653 -0.272281
349 1 H 9.84912 14.9694 0.18187
350 1 H 9.9035 14.571 17.7417
351 1 H 7.70807 13.4579 -0.877837
352 2 C 4.90404 3.92459 12.9179
353 2 C 5.7364 4.65115 11.8973
354 4 O 4.81811 5.1993 10.8474
355 1 H 4.29907 3.16498 12.459
356 1 H 5.62607 3.44581 13.6
357 1 H 4.27093 4.56361 13.5329
358 1 H 6.50566 4.06306 11.4471
359 1 H 6.23667 5.46394 12.4238
360 1 H 4.13214 4.55694 10.7044
361 2 C 10.85 16.165 10.1738
362 2 C 10.6457 14.8916 11.0286
363 4 O 11.3813 14.9548 12.221
364 1 H 11.7879 16.081 9.58385
365 1 H 10.0706 16.4272 9.43297
366 1 H 10.9933 16.9968 10.8451
367 1 H 11.1057 14.055 10.5151
368 1 H 9.60309 14.6857 11.2102
369 1 H 10.9772 15.6196 12.7752
370 2 C 13.3158 9.23512 12.8657
371 2 C 12.7053 9.83541 11.6167
372 4 O 11.288 9.81951 11.7274
373 1 H 14.4015 9.3827 12.7739
374 1 H 13.0433 9.75291 13.7742
375 1 H 13.1564 8.18078 12.9246
376 1 H 12.9261 9.23744 10.7181
377 1 H 13.0619 10.8305 11.4908
378 1 H 11.0652 10.6695 12.1051
379 2 C 2.148 5.60135 2.88825
380 2 C 0.629122 5.71503 2.61953
381 4 O -0.14956 4.99953 3.56421
382 1 H 2.42135 5.62075 3.92049
383 1 H 2.64352 4.81603 2.30956
384 1 H 2.58451 6.54968 2.50916
385 1 H 0.46585 5.26454 1.65071
386 1 H 0.311814 6.79478 2.55445
387 1 H -0.900355 4.59823 3.1334
388 2 C 15.4668 14.4548 11.4059
389 2 C 14.9524 13.4542 12.3789
390 4 O 13.5259 13.2873 12.2556
391 1 H 16.5752 14.4542 11.3797
392 1 H 14.9803 14.2534 10.4617
393 1 H 15.1121 15.4316 11.7438
394 1 H 15.179 13.7169 13.4058
395 1 H 15.455 12.5232 12.1063
396 1 H 13.0614 14.1079 12.2468
397 2 C 0.42104 10.8371 12.5883
398 2 C 1.89037 10.9121 12.1579
399 4 O 2.3157 9.74767 11.4052
400 1 H 0.278256 9.84333 13.0592
401 1 H 0.224297 11.6573 13.3161
402 1 H -0.275124 10.7486 11.759
403 1 H 2.52778 10.9848 13.0495
404 1 H 2.08656 11.7548 11.5037
405 1 H 3.12574 9.43095 11.838
406 2 C 6.30773 7.56955 16.0828
407 2 C 5.00707 7.01934 16.5059
408 4 O 3.96599 7.72802 15.6472
409 1 H 6.52658 7.3387 15.0547
410 1 H 6.16128 8.6635 16.2893
411 1 H 7.15972 7.18266 16.6301
412 1 H 4.79602 7.21305 17.5076
413 1 H 4.94925 5.97401 16.2879
414 1 H 3.17315 7.26318 15.9637
415 2 C 8.04253 6.84885 5.23487
416 2 C 8.55134 8.0683 5.95911
417 4 O 9.84628 8.48644 5.46397
418 1 H 7.24024 6.27748 5.74917
419 1 H 7.7506 7.0822 4.21451
420 1 H 8.89201 6.17722 5.153
421 1 H 8.64494 7.96204 7.04588
422 1 H 7.90015 8.9427 5.78921
423 1 H 9.59945 9.10986 4.79407
424 2 C 4.43456 15.6001 4.71789
425 2 C 3.31857 14.8395 4.14211
426 4 O 3.30384 14.8751 2.67127
427 1 H 4.24324 16.6841 4.63972
428 1 H 4.36642 15.3065 5.76934
429 1 H 5.48287 15.4019 4.32292
430 1 H 2.4012 15.1792 4.4337
431 1 H 3.33752 13.7791 4.45902
432 1 H 3.46568 13.9576 2.3559
433 2 C 17.9488 4.76995 8.35351
434 2 C -0.842548 4.50981 6.89497
435 4 O 17.7791 5.45874 5.89768
436 1 H 17.1516 4.13605 8.74278
437 1 H -0.368221 4.68474 9.017
438 1 H 17.7126 5.82265 8.51196
439 1 H 17.7917 3.54533 6.61747
440 1 H 0.24845 4.38636 6.64647
441 1 H -0.7397 5.45444 5.08589
442 2 C 17.1379 3.98264 17.6875
443 2 C 17.0106 3.05236 16.4369
444 4 O 16.1079 1.94656 16.6773
445 1 H 16.6677 3.50913 -0.613596
446 1 H -0.99505 4.27518 18.003
447 1 H 16.5447 4.90233 17.545
448 1 H 17.9583 2.58689 16.1931
449 1 H 16.7865 3.63145 15.542
450 1 H 15.2873 2.29157 16.3563
ITEM: TIMESTEP
7500
ITEM: NUMBER OF ATOMS
450
ITEM: BOX BOUNDS pp pp pp
-1.0607813362674516e+00 1.7985781336267515e+01
-1.0607813362674516e+00 1.7985781336267515e+01
-1.0607813362674516e+00 1.7985781336267515e+01
ITEM: ATOMS id type element x y z
1 2 C 13.8229 16.5997 5.09515
2 2 C 12.6964 17.574 5.34513
3 4 O 13.1804 -0.363759 6.14228
4 1 H 14.2859 16.3203 6.04646
5 1 H 13.5172 15.6906 4.5996
6 1 H 14.529 17.1132 4.47115
7 1 H 11.8041 17.1614 5.82841
8 1 H 12.4145 -0.995016 4.39468
9 1 H 12.7637 0.41905 5.78659
10 2 C 12.3512 15.4236 16.0289
11 2 C 13.375 14.3035 15.7238
12 4 O 12.7209 13.059 15.8158
13 1 H 11.5497 15.4516 15.2742
14 1 H 11.8423 15.2081 16.9709
15 1 H 12.8662 16.3619 16.1104
16 1 H 14.1882 14.2803 16.4765
17 1 H 13.8879 14.4314 14.7879
18 1 H 12.4498 12.7622 14.9549
19 2 C 13.0612 4.72958 2.39352
20 2 C 14.283 5.09734 1.51167
21 4 O 15.1767 6.06487 2.15752
22 1 H 12.3229 5.5262 2.38057
23 1 H 12.6796 3.75384 2.01045
24 1 H 13.3498 4.59415 3.39769
25 1 H 13.9471 5.56657 0.609684
26 1 H 14.8884 4.1986 1.31042
27 1 H 15.5328 5.62226 2.95217
28 2 C -0.254317 8.7341 9.00523
29 2 C -0.518984 10.1373 8.4647
30 4 O 0.156605 10.4755 7.27565
31 1 H 0.797682 8.56482 9.1463
32 1 H -0.763647 8.56566 9.92697
33 1 H -0.583552 8.04223 8.19749
34 1 H -0.324429 10.88 9.27434
35 1 H 17.4864 10.1544 8.1881
36 1 H 1.11062 10.3483 7.39985
37 2 C -0.265385 16.8485 14.8208
38 2 C 0.655046 17.9408 15.0198
39 4 O 1.8236 17.8957 15.3192
40 1 H 0.187067 15.8732 14.7369
41 1 H -0.946129 17.007 15.6272
42 1 H -0.795802 17.1025 13.9488
43 1 H 0.0640701 -0.0915479 14.8391
44 1 H 16.9617 -0.399475 0.499702
45 1 H 7.12473 3.30609 6.91702
46 2 C 6.27475 14.1961 7.08207
47 2 C 7.25651 13.0852 7.11141
48 4 O 6.98993 12.1993 6.00477
49 1 H 6.37842 14.866 7.94895
50 1 H 6.39484 14.9258 6.27526
51 1 H 5.26561 13.8093 7.12147
52 1 H 7.19786 12.4687 7.99852
53 1 H 8.30025 13.4261 7.04614
54 1 H 7.84714 11.8525 5.74014
55 2 C 17.8323 5.1912 12.5855
56 2 C 16.4346 5.2936 12.338
57 4 O 15.6876 5.18752 13.5453
58 1 H -1.00146 4.21709 13.1036
59 1 H -0.677832 5.12152 11.6512
60 1 H -0.884549 5.9268 13.3562
61 1 H 16.0317 4.44433 11.8218
62 1 H 16.1079 6.20219 11.8349
63 1 H 15.9816 5.89034 14.1308
64 2 C 10.4964 10.2938 8.45124
65 2 C 9.07033 10.4372 8.81133
66 4 O 8.81426 9.75143 10.0886
67 1 H 10.7197 9.29176 8.16368
68 1 H 10.8012 10.9491 7.64818
69 1 H 11.14 10.576 9.29207
70 1 H 8.4354 9.9089 8.07752
71 1 H 8.75748 11.4899 8.86377
72 1 H 9.62387 9.86372 10.5723
73 2 C 4.81134 1.5439 6.55057
74 2 C 4.07954 2.86528 6.2957
75 4 O 3.9694 3.76054 7.43131
76 1 H 5.43024 1.63218 7.46713
77 1 H 4.10653 0.720401 6.71517
78 1 H 5.45441 1.27256 5.73705
79 1 H 3.09055 2.64217 5.85822
80 1 H 4.64341 3.36962 5.46787
81 1 H 4.86583 4.0619 7.60795
82 2 C 7.05888 9.18283 12.6637
83 2 C 5.69598 8.67292 12.2019
84 4 O 4.59406 8.99456 13.056
85 1 H 7.39722 8.56166 13.5496
86 1 H 7.78019 8.9138 11.9063
87 1 H 7.13067 10.2424 12.9174
88 1 H 5.80767 7.5847 12.0813
89 1 H 5.44521 9.09242 11.2835
90 1 H 4.54899 8.45579 13.8725
91 2 C 11.9265 4.50614 15.5351
92 2 C 12.9847 3.74645 16.2232
93 4 O 14.1646 3.30198 15.4509
94 1 H 11.1283 3.85003 15.1008
95 1 H 11.4694 5.33961 16.0981
96 1 H 12.3161 5.12231 14.7302
97 1 H 12.3683 2.86584 16.5085
98 1 H 13.4626 4.13069 17.1749
99 1 H 14.5968 4.03204 15.029
100 2 C 7.31785 13.1265 11.3114
101 2 C 6.2196 13.4526 12.2827
102 4 O 6.76853 14.131 13.4609
103 1 H 8.08924 12.3709 11.5458
104 1 H 6.84633 12.7809 10.4003
105 1 H 7.7482 14.1086 11.0432
106 1 H 5.67496 12.5448 12.5636
107 1 H 5.56221 14.1462 11.8235
108 1 H 6.02281 14.4711 13.9536
109 2 C 0.319116 0.393251 6.46397
110 2 C 1.27782 -0.841447 6.73754
111 4 O 1.44928 17.2988 5.60873
112 1 H 0.619017 1.00636 5.64016
113 1 H -0.675489 0.0268539 6.40159
114 1 H 0.30354 1.04576 7.32327
115 1 H 0.85112 17.6758 7.55405
116 1 H 2.22676 -0.375708 7.02024
117 1 H 1.77007 17.9418 5.01456
118 2 C 4.97449 10.4935 8.75302
119 2 C 3.84017 11.4195 8.85516
120 4 O 2.59262 10.6667 8.85854
121 1 H 5.00233 9.94874 7.80374
122 1 H 5.98278 10.9211 8.91372
123 1 H 4.80937 9.71065 9.51941
124 1 H 3.70717 12.0915 8.04575
125 1 H 3.83753 12.0548 9.7257
126 1 H 2.57478 10.0928 9.62974
127 2 C 4.96718 17.8562 15.0618
128 2 C 4.6393 16.4704 15.4971
129 4 O 4.4495 15.4636 14.4404
130 1 H 4.02293 -0.759132 14.6014
131 1 H 5.19171 -0.74012 16.0381
132 1 H 5.86813 17.8626 14.4138
133 1 H 3.72463 16.5186 16.0784
134 1 H 5.45099 16.0515 16.1251
135 1 H 3.56592 15.136 14.5568
136 2 C 7.47477 11.0645 2.46305
137 2 C 8.27834 10.2931 3.49995
138 4 O 9.25528 11.1408 4.15113
139 1 H 8.18555 11.3824 1.72464
140 1 H 6.61624 10.5434 2.04785
141 1 H 7.13145 12.0054 2.88811
142 1 H 8.82747 9.39704 3.08653
143 1 H 7.59909 9.89994 4.26035
144 1 H 9.57986 11.7179 3.46938
145 2 C 8.17485 15.2639 2.94281
146 2 C 9.62676 15.025 2.72977
147 4 O 10.2482 14.5282 3.9647
148 1 H 7.5631 15.5006 2.09432
149 1 H 7.81555 14.3455 3.45057
150 1 H 8.05599 16.0579 3.75832
151 1 H 10.2428 15.9127 2.53856
152 1 H 9.85261 14.3424 1.89136
153 1 H 10.9597 13.9475 3.687
154 2 C 15.3612 -0.677825 14.2058
155 2 C 16.4317 0.29124 13.9288
156 4 O 17.0258 -0.066337 12.6525
157 1 H 15.7832 17.3942 14.4166
158 1 H 14.7573 -0.349694 15.0428
159 1 H 14.7575 -0.755111 13.2984
160 1 H 17.1028 0.298982 14.8184
161 1 H 16.0086 1.31354 13.9144
162 1 H 17.749 0.546758 12.4759
163 2 C 16.6993 8.61974 5.01769
164 2 C 15.8887 9.84812 5.38613
165 4 O 14.7305 9.40341 6.02991
166 1 H 16.1117 7.79937 4.60408
167 1 H 17.4124 8.91522 4.21732
168 1 H 17.2405 8.23689 5.88715
169 1 H 15.635 10.4042 4.48957
170 1 H 16.4375 10.4983 6.03781
171 1 H 14.0543 10.0845 6.03886
172 2 C 14.0399 10.9419 -0.697568
173 2 C 15.4298 11.3949 -0.970896
174 4 O 15.8776 12.3284 -0.0800103
175 1 H 13.8901 10.3093 0.193456
176 1 H 13.3408 11.7512 -0.670322
177 1 H 13.7597 10.3307 17.4833
178 1 H 15.3947 11.9524 17.1376
179 1 H 16.2154 10.5621 -1.02117
180 1 H 15.9958 11.9841 0.824963
181 2 C 16.7774 2.18609 3.01673
182 2 C 15.9616 2.57714 4.20686
183 4 O 15.7728 3.92962 4.41699
184 1 H 16.8614 2.98739 2.30926
185 1 H 17.8432 1.95602 3.19691
186 1 H 16.2534 1.35798 2.57157
187 1 H 16.4768 2.15733 5.06609
188 1 H 14.9741 2.10044 4.26609
189 1 H 14.9904 4.22888 4.91838
190 2 C 5.05649 16.9721 9.50766
191 2 C 6.4344 17.5743 8.99694
192 4 O 6.2572 -0.277046 8.26839
193 1 H 4.43423 16.6969 8.67976
194 1 H 5.30881 16.0709 10.0639
195 1 H 4.56366 17.5937 10.2378
196 1 H 6.89508 16.7313 8.35137
197 1 H 7.02441 17.731 9.8987
198 1 H 6.76489 0.46813 8.63097
199 2 C 7.9686 -0.366332 12.958
200 2 C 7.90417 17.1941 12.6798
201 4 O 8.35791 16.5373 13.8356
202 1 H 7.36798 0.254505 12.2387
203 1 H 7.65487 -0.241728 13.9937
204 1 H 9.02866 -0.0226373 13.0291
205 1 H 8.39672 16.9312 11.7764
206 1 H 6.85529 17.0348 12.4782
207 1 H 8.09401 15.6363 13.6441
208 2 C 2.28144 10.7644 4.67122
209 2 C 2.75134 10.0769 3.43551
210 4 O 2.99072 11.1567 2.5285
211 1 H 3.15281 11.2451 5.11777
212 1 H 1.50415 11.4532 4.40639
213 1 H 1.95483 10.0422 5.41249
214 1 H 1.94137 9.36848 3.07981
215 1 H 3.71184 9.57664 3.53896
216 1 H 3.00551 10.7694 1.64951
217 2 C 0.320285 10.1376 -0.0145684
218 2 C 0.0821377 9.67755 17.6144
219 4 O -0.0628769 8.28858 17.6343
220 1 H -0.408782 9.76852 0.673186
221 1 H 1.18122 9.63746 0.341857
222 1 H 0.379279 11.2392 0.0795717
223 1 H 0.924246 10.0366 17.0494
224 1 H -0.870837 10.07 17.2849
225 1 H -0.884506 8.03095 17.2479
226 2 C 13.6586 4.96721 8.02282
227 2 C 12.9199 4.99272 6.70201
228 4 O 13.7772 5.30704 5.57676
229 1 H 14.2036 5.89471 8.14734
230 1 H 13.0087 4.82883 8.91403
231 1 H 14.3776 4.11468 8.04394
232 1 H 12.0611 5.67606 6.68275
233 1 H 12.641 3.97197 6.5411
234 1 H 13.9504 6.25882 5.48625
235 2 C 17.654 17.2701 3.19693
236 2 C 16.7131 17.4126 2.05282
237 4 O 17.4304 -0.685056 1.26674
238 1 H -0.499753 16.8965 2.71258
239 1 H 17.8574 -0.832641 3.73419
240 1 H 17.2953 16.4922 3.95012
241 1 H 15.6672 17.7136 2.27733
242 1 H 16.5173 16.5488 1.4288
243 1 H 16.8564 5.0569 5.59577
244 2 C 14.7802 13.1925 2.87771
245 2 C 13.4404 13.3272 2.30739
246 4 O 12.3227 12.4351 2.86256
247 1 H 15.0018 12.1705 3.09761
248 1 H 15.5157 13.4496 1.993
249 1 H 15.0696 13.7875 3.68304
250 1 H 13.4261 12.932 1.27513
251 1 H 12.7149 14.1702 2.26271
252 1 H 12.8179 11.615 3.01144
253 2 C 1.89152 4.7494 15.0152
254 2 C 1.08058 5.88458 15.6058
255 4 O 1.84005 6.43243 16.6318
256 1 H 1.82898 4.54681 13.9283
257 1 H 2.94969 4.80167 15.2973
258 1 H 1.57076 3.83842 15.5359
259 1 H 0.101172 5.72069 16.0381
260 1 H 0.900173 6.66101 14.8395
261 1 H 1.2783 7.1052 17.0487
262 2 C 2.04677 -0.481558 0.670459
263 2 C 2.86569 -0.336109 1.96205
264 4 O 2.62143 17.6673 2.85441
265 1 H 2.50516 17.8894 -0.058248
266 1 H 1.0443 -0.800916 0.938844
267 1 H 1.9418 0.416345 0.0690501
268 1 H 2.50338 0.570073 2.45633
269 1 H 3.93262 -0.208439 1.75397
270 1 H 2.91181 16.8171 2.51922
271 2 C 13.9386 17.3428 -0.251204
272 2 C 14.2559 -0.503369 17.8689
273 4 O 15.2524 0.152358 -0.404023
274 1 H 13.8531 17.7779 0.718023
275 1 H 13.0944 16.8096 -0.655493
276 1 H 14.8196 16.7119 -0.182824
277 1 H 13.3711 0.106372 17.6736
278 1 H 14.6489 -0.90823 16.9588
279 1 H 15.5498 0.945552 -0.916178
280 2 C 9.54636 0.611112 8.43928
281 2 C 9.04914 2.0454 8.70462
282 4 O 7.62467 1.96304 9.02004
283 1 H 8.77636 0.245425 7.76615
284 1 H 10.4749 0.558799 7.87631
285 1 H 9.60803 0.065932 9.36541
286 1 H 9.19805 2.68413 7.7846
287 1 H 9.61907 2.55545 9.4952
288 1 H 7.17262 2.84092 8.98103
289 2 C 7.92118 6.26933 9.88986
290 2 C 7.42015 5.57287 8.63248
291 4 O 6.46388 4.51758 8.99856
292 1 H 8.408 5.55567 10.4781
293 1 H 8.6245 7.03335 9.60492
294 1 H 7.18523 6.80152 10.4731
295 1 H 8.25758 5.07098 8.18912
296 1 H 7.01123 6.25872 7.87468
297 1 H 5.69908 4.8921 9.44192
298 2 C 14.2476 14.0152 7.16048
299 2 C 13.6427 12.6944 7.67286
300 4 O 13.3294 12.0195 6.46854
301 1 H 14.2736 14.8029 7.92878
302 1 H 15.1776 13.7835 6.61997
303 1 H 13.4852 14.259 6.38706
304 1 H 12.7319 12.9228 8.23401
305 1 H 14.332 12.0897 8.25474
306 1 H 12.4273 11.7248 6.42082
307 2 C 14.3121 7.06329 17.1357
308 2 C 14.7405 7.7534 15.8976
309 4 O 16.178 7.82427 15.8939
310 1 H 14.8475 7.43765 -1.03421
311 1 H 13.2215 7.10483 17.1968
312 1 H 14.6055 6.04046 17.0619
313 1 H 14.2648 8.719 15.8965
314 1 H 14.4058 7.10332 15.1007
315 1 H 16.4077 8.37684 15.1245
316 2 C 0.0484409 14.2946 7.5559
317 2 C 1.33256 13.6287 7.14818
318 4 O 2.51938 14.2722 7.54415
319 1 H 0.00983837 15.317 7.20249
320 1 H -0.836629 13.7305 7.1744
321 1 H -0.0643853 14.4215 8.63273
322 1 H 1.37172 13.6096 6.11155
323 1 H 1.36346 12.6078 7.47653
324 1 H 2.41752 14.5709 8.44476
325 2 C 15.4799 1.34469 9.40179
326 2 C 16.4753 0.233547 9.06597
327 4 O 17.6135 0.164204 9.90544
328 1 H 15.9735 2.15234 9.8605
329 1 H 15.0431 1.65279 8.45767
330 1 H 14.7448 0.924275 10.0799
331 1 H 16.8435 0.31547 8.04999
332 1 H 15.8771 -0.721574 9.02752
333 1 H 17.4039 -0.340105 10.6759
334 2 C 1.72089 1.49022 9.6227
335 2 C 1.53804 1.47681 11.1362
336 4 O 0.263324 1.96215 11.6205
337 1 H 2.80086 1.23772 9.49237
338 1 H 1.14971 0.711788 9.11847
339 1 H 1.58893 2.50764 9.16552
340 1 H 2.32155 2.00028 11.6223
341 1 H 1.5615 0.430138 11.5024
342 1 H -0.365486 1.8136 10.8699
343 2 C 8.00255 15.7693 -0.564176
344 2 C 9.11928 14.673 -0.634838
345 4 O 8.76636 13.4323 -0.086528
346 1 H 8.50228 16.8346 -0.39831
347 1 H 7.35467 15.7221 17.5224
348 1 H 7.45071 15.5758 0.310231
349 1 H 9.94135 15.0313 -0.088814
350 1 H 9.50112 14.4961 17.417
351 1 H 8.08087 13.1348 -0.707357
352 2 C 4.97173 3.96099 13.1098
353 2 C 5.53375 4.65952 11.9041
354 4 O 4.6303 5.16863 10.9664
355 1 H 4.3673 3.06736 12.8594
356 1 H 5.84903 3.70033 13.7159
357 1 H 4.36919 4.61378 13.6981
358 1 H 6.22492 3.99809 11.354
359 1 H 6.13501 5.49148 12.3271
360 1 H 3.71345 4.88596 11.0377
361 2 C 10.8952 15.8531 10.0567
362 2 C 10.6278 14.8407 11.1609
363 4 O 11.2805 15.1015 12.4066
364 1 H 11.9563 15.8882 9.81809
365 1 H 10.3889 15.5742 9.1505
366 1 H 10.641 16.868 10.3199
367 1 H 10.9332 13.8441 10.8671
368 1 H 9.55064 14.8412 11.3458
369 1 H 10.6405 15.5859 12.9152
370 2 C 13.1364 9.20146 12.9839
371 2 C 12.5317 9.50458 11.6512
372 4 O 11.1178 9.71472 11.6741
373 1 H 14.2347 9.10305 12.9185
374 1 H 12.8578 10.039 13.6393
375 1 H 12.7271 8.24305 13.4116
376 1 H 12.681 8.71182 10.9265
377 1 H 13.0423 10.3941 11.2205
378 1 H 10.861 10.1303 12.5125
379 2 C 2.07331 5.90778 3.32262
380 2 C 0.849632 5.88569 2.41603
381 4 O -0.201886 5.35508 3.18167
382 1 H 1.79831 6.45972 4.21703
383 1 H 2.26211 4.84383 3.58811
384 1 H 2.9274 6.41033 2.8432
385 1 H 1.12266 5.18077 1.60409
386 1 H 0.615659 6.83867 2.00365
387 1 H -0.965243 5.31153 2.5983
388 2 C 15.5155 14.4438 11.153
389 2 C 14.9669 13.3123 12.0362
390 4 O 13.6137 13.3161 12.1606
391 1 H 16.5794 14.274 11.0028
392 1 H 14.9761 14.5291 10.2223
393 1 H 15.3942 15.3722 11.7015
394 1 H 15.464 13.2174 13.0267
395 1 H 15.3027 12.4216 11.5271
396 1 H 13.2438 14.1876 12.4445
397 2 C 0.560733 11.0041 12.432
398 2 C 2.00169 10.8626 11.913
399 4 O 2.26136 9.47066 11.5277
400 1 H 0.359172 10.4341 13.3063
401 1 H 0.395669 12.0507 12.6093
402 1 H -0.0514891 10.6236 11.6166
403 1 H 2.76875 11.1655 12.6197
404 1 H 2.04755 11.4154 10.9856
405 1 H 3.08806 9.2043 11.9643
406 2 C 6.40547 7.14383 16.311
407 2 C 4.83904 6.97376 16.4587
408 4 O 4.16089 7.60419 15.5021
409 1 H 6.8673 6.65851 15.4081
410 1 H 6.57365 8.20074 16.2523
411 1 H 6.89547 6.78573 17.2179
412 1 H 4.60407 7.50508 17.445
413 1 H 4.44086 5.93239 16.5998
414 1 H 3.35359 7.09082 15.3282
415 2 C 8.1189 6.73313 5.38887
416 2 C 8.59963 8.01592 6.09571
417 4 O 9.77899 8.38345 5.44141
418 1 H 7.06891 6.50848 5.6392
419 1 H 8.11245 6.87674 4.30452
420 1 H 8.65461 5.80465 5.58372
421 1 H 8.86072 7.84137 7.13004
422 1 H 7.88888 8.84785 6.0381
423 1 H 9.93796 9.34017 5.48774
424 2 C 4.35391 15.7729 4.47012
425 2 C 3.30575 14.7631 3.95797
426 4 O 3.47078 14.6691 2.54384
427 1 H 4.28043 16.7037 3.9327
428 1 H 4.19021 15.9567 5.50575
429 1 H 5.28265 15.3454 4.29273
430 1 H 2.19955 15.0105 4.12066
431 1 H 3.49335 13.7956 4.43457
432 1 H 2.98306 13.8622 2.28486
433 2 C 17.7163 4.72397 8.3529
434 2 C -0.778941 4.44221 6.96317
435 4 O 17.5854 5.35891 6.0932
436 1 H 16.6175 4.89232 8.35945
437 1 H -1.0738 3.9371 9.0584
438 1 H -0.867718 5.61134 8.71706
439 1 H -0.811817 3.42755 6.64058
440 1 H 0.253321 4.68505 7.01038
441 1 H -0.806682 5.56156 5.32006
442 2 C 17.1827 4.03435 17.5162
443 2 C 17.1237 2.87368 16.556
444 4 O 15.9881 2.09639 16.7882
445 1 H 17.0936 3.70984 -0.504103
446 1 H -0.940451 4.58673 17.5678
447 1 H 16.425 4.79018 17.2998
448 1 H -1.03675 2.24371 16.5723
449 1 H 17.0801 3.38059 15.5633
450 1 H 15.2647 2.57894 16.2879
ITEM: TIMESTEP
7600
ITEM: NUMBER OF ATOMS
450
ITEM: BOX BOUNDS pp pp pp
-9.9269251431260841e-01 1.7917692514312670e+01
-9.9269251431260841e-01 1.7917692514312670e+01
-9.9269251431260841e-01 1.7917692514312670e+01
ITEM: ATOMS id type element x y z
1 2 C 13.8402 16.483 5.15165
2 2 C 12.6426 17.4141 5.57727
3 4 O 13.0528 -0.354916 6.35617
4 1 H 14.5543 16.3417 5.94286
5 1 H 13.3907 15.5156 4.84296
6 1 H 14.3179 16.8945 4.24902
7 1 H 11.9083 16.8594 6.1691
8 1 H 12.1367 17.7701 4.6957
9 1 H 12.3192 0.0324722 6.826
10 2 C 12.3115 15.2091 16.0882
11 2 C 13.3523 14.2089 15.8172
12 4 O 12.7905 12.8605 15.5835
13 1 H 11.3984 15.0068 15.5729
14 1 H 11.9681 15.1456 17.1276
15 1 H 12.6911 16.2134 15.8188
16 1 H 13.9814 14.0585 16.6865
17 1 H 13.9648 14.4685 14.9371
18 1 H 12.6479 12.7899 14.6373
19 2 C 13.1747 4.84546 2.05693
20 2 C 14.4106 5.33835 1.30662
21 4 O 15.4611 5.64404 2.28406
22 1 H 12.6977 5.63873 2.66921
23 1 H 12.4289 4.43762 1.37953
24 1 H 13.5676 3.97613 2.65842
25 1 H 14.2854 6.25122 0.748131
26 1 H 14.7626 4.59422 0.585503
27 1 H 15.6313 4.85152 2.80281
28 2 C -0.297113 9.05459 9.04216
29 2 C -0.547507 10.4503 8.50541
30 4 O 0.111253 10.6006 7.2421
31 1 H 0.752903 8.82635 9.16597
32 1 H -0.796395 8.94012 10.0133
33 1 H -0.766895 8.347 8.337
34 1 H -0.131254 11.1828 9.18613
35 1 H 17.2979 10.6773 8.42659
36 1 H 1.03601 10.4762 7.48181
37 2 C -0.504815 16.9687 14.9002
38 2 C 0.70883 -0.983795 14.9366
39 4 O 1.72298 17.7088 15.5756
40 1 H -0.190096 15.9241 15.0604
41 1 H -1.12682 17.3335 15.7831
42 1 H 17.7726 17.1072 14.0224
43 1 H 0.634348 -0.0747563 14.2601
44 1 H 16.6866 -0.048997 0.716102
45 1 H 7.25885 2.88983 7.22967
46 2 C 6.25322 14.2664 6.80205
47 2 C 7.30692 13.1765 6.84639
48 4 O 7.04266 12.1196 5.92849
49 1 H 6.43563 14.9591 7.64205
50 1 H 6.32739 14.8842 5.91721
51 1 H 5.24882 13.8946 6.90487
52 1 H 7.44592 12.7067 7.81252
53 1 H 8.26178 13.6085 6.56806
54 1 H 7.89729 12.0102 5.4889
55 2 C -0.987317 5.18046 12.6564
56 2 C 16.4071 5.23843 12.5781
57 4 O 15.6646 5.11981 13.7744
58 1 H -0.671677 4.18929 12.9423
59 1 H -0.594737 5.44872 11.6668
60 1 H -0.492062 5.95391 13.3142
61 1 H 15.9411 4.46385 11.9643
62 1 H 16.012 6.09445 12.019
63 1 H 16.0401 5.74849 14.4245
64 2 C 10.4318 10.3845 8.26639
65 2 C 9.13725 10.77 8.96202
66 4 O 8.73632 9.89431 9.95986
67 1 H 10.4261 9.32027 7.93845
68 1 H 10.5952 10.9794 7.36761
69 1 H 11.352 10.4307 8.89161
70 1 H 8.33562 10.8341 8.26056
71 1 H 9.26109 11.7611 9.39796
72 1 H 9.49558 9.8416 10.5818
73 2 C 4.66251 1.47802 6.25122
74 2 C 4.10605 2.88664 6.06485
75 4 O 3.89674 3.46253 7.30745
76 1 H 5.63458 1.57327 6.76567
77 1 H 3.96234 0.954295 6.89248
78 1 H 4.97115 0.883337 5.37253
79 1 H 3.13474 2.8003 5.59289
80 1 H 4.80806 3.45886 5.49692
81 1 H 4.74974 3.6476 7.70397
82 2 C 6.83241 9.18417 12.6217
83 2 C 5.54213 8.58487 12.1125
84 4 O 4.47207 8.75065 13.0053
85 1 H 7.00198 8.76547 13.6291
86 1 H 7.6669 9.04577 11.9514
87 1 H 6.76073 10.2723 12.7203
88 1 H 5.65636 7.49068 11.876
89 1 H 5.1927 9.00159 11.1455
90 1 H 4.54458 8.04639 13.6553
91 2 C 12.1838 4.83323 15.2605
92 2 C 13.1842 3.88563 16.0108
93 4 O 14.0605 3.29308 15.1163
94 1 H 11.962 4.81222 14.2197
95 1 H 11.3751 5.1658 15.9046
96 1 H 12.56 5.89851 15.2935
97 1 H 12.6231 3.1119 16.4794
98 1 H 13.8108 4.35236 16.7376
99 1 H 14.6162 4.03968 14.7271
100 2 C 7.30814 13.1907 11.4302
101 2 C 6.15372 13.4763 12.4452
102 4 O 6.72223 13.834 13.6614
103 1 H 8.16653 12.7202 11.9614
104 1 H 7.10214 12.5143 10.619
105 1 H 7.64199 14.1094 10.9562
106 1 H 5.52243 12.5762 12.5144
107 1 H 5.5094 14.3447 12.1492
108 1 H 6.03328 14.0939 14.295
109 2 C 0.471082 0.638886 6.15443
110 2 C 1.1451 -0.547129 6.76253
111 4 O 1.2482 17.2909 5.92071
112 1 H 1.1634 1.06487 5.41047
113 1 H -0.302409 0.176343 5.52285
114 1 H -0.0159966 1.3555 6.86046
115 1 H 0.424567 -1.01904 7.46555
116 1 H 2.03892 -0.245769 7.33537
117 1 H 1.95818 17.4111 5.27535
118 2 C 5.33096 10.5305 8.34933
119 2 C 4.09487 11.2957 8.86465
120 4 O 2.83894 10.6632 8.63631
121 1 H 5.2851 10.0801 7.34928
122 1 H 6.21909 11.1753 8.33388
123 1 H 5.72677 9.77697 9.01864
124 1 H 4.0187 12.3235 8.47342
125 1 H 4.16715 11.3641 9.99622
126 1 H 2.68388 10.023 9.36771
127 2 C 4.95481 17.6465 15.148
128 2 C 4.71546 16.1122 15.4181
129 4 O 4.51494 15.4832 14.1276
130 1 H 4.0073 -0.785059 14.9819
131 1 H 5.50512 -0.794884 15.9593
132 1 H 5.49461 17.6171 14.2356
133 1 H 3.84822 15.8599 16.0643
134 1 H 5.6325 15.6546 15.7661
135 1 H 3.78178 14.8756 14.1324
136 2 C 7.40693 11.0428 2.79471
137 2 C 8.26672 10.2857 3.78705
138 4 O 9.2385 11.1168 4.45221
139 1 H 8.08738 11.4724 2.03354
140 1 H 6.83295 10.2908 2.2069
141 1 H 6.75646 11.7859 3.28022
142 1 H 8.80299 9.53332 3.21534
143 1 H 7.60647 9.83585 4.46559
144 1 H 9.75086 11.559 3.76935
145 2 C 8.0899 15.0131 3.37642
146 2 C 9.58069 15.0399 2.8702
147 4 O 10.4076 14.3677 3.85882
148 1 H 7.64599 15.8624 2.87623
149 1 H 7.51748 14.2114 2.96594
150 1 H 7.96536 15.149 4.43897
151 1 H 9.99036 16.031 2.74282
152 1 H 9.63924 14.5057 1.92395
153 1 H 11.2523 14.1594 3.41757
154 2 C 15.0669 -0.691785 13.9219
155 2 C 16.1392 0.433022 13.5494
156 4 O 16.9754 0.000300705 12.5186
157 1 H 15.4668 17.2116 13.8046
158 1 H 14.8149 -0.553594 14.9571
159 1 H 14.1975 -0.703651 13.259
160 1 H 16.6477 0.633927 14.4746
161 1 H 15.6123 1.32878 13.2628
162 1 H 17.7439 0.595212 12.399
163 2 C 16.6939 8.68726 4.59769
164 2 C 15.8942 9.87493 4.98558
165 4 O 14.9028 9.50128 5.93961
166 1 H 16.0459 8.0825 3.95851
167 1 H 17.5749 8.95471 4.05891
168 1 H 16.873 8.1138 5.48988
169 1 H 15.4794 10.3362 4.07727
170 1 H 16.521 10.6899 5.44948
171 1 H 14.2827 10.2338 6.01912
172 2 C 13.9341 11.353 -0.86156
173 2 C 15.3968 11.6383 17.8
174 4 O 15.8198 12.5649 -0.0042611
175 1 H 13.6295 10.9315 0.124759
176 1 H 13.456 12.2904 17.8201
177 1 H 13.5122 10.6936 17.2717
178 1 H 15.5375 12.0266 16.8005
179 1 H 15.9925 10.7622 -1.01327
180 1 H 16.4733 13.1645 -0.342098
181 2 C 16.3251 2.14824 3.12352
182 2 C 15.7527 2.67126 4.4973
183 4 O 15.7462 4.12253 4.38388
184 1 H 16.3036 3.0183 2.44115
185 1 H 17.407 1.89702 3.09905
186 1 H 15.795 1.26074 2.80248
187 1 H 16.1924 2.19753 5.40635
188 1 H 14.7351 2.3181 4.49431
189 1 H 15.042 4.59426 4.92999
190 2 C 4.77601 16.9164 9.63825
191 2 C 6.12429 17.2063 9.1487
192 4 O 6.07534 -0.459406 8.44918
193 1 H 4.13148 17.0407 8.74721
194 1 H 4.65677 15.8741 10.0093
195 1 H 4.45729 17.6305 10.4055
196 1 H 6.4081 16.4069 8.52629
197 1 H 6.84642 17.2982 9.95114
198 1 H 6.6944 0.190967 8.79708
199 2 C 8.02903 -0.465724 12.8757
200 2 C 7.9152 16.9066 12.7662
201 4 O 8.75363 16.3012 13.7201
202 1 H 7.66445 -0.0623938 11.9451
203 1 H 7.50908 -0.103034 13.7411
204 1 H 9.07165 -0.230069 13.0594
205 1 H 8.29115 16.6198 11.7222
206 1 H 6.85913 16.6189 12.7883
207 1 H 8.37873 15.3994 13.8722
208 2 C 2.37679 10.9067 4.84312
209 2 C 3.04283 10.3508 3.54179
210 4 O 3.19527 11.3037 2.46237
211 1 H 2.78127 11.8837 5.16469
212 1 H 1.29819 11.0204 4.81065
213 1 H 2.66332 10.2149 5.65272
214 1 H 2.41996 9.54805 3.21852
215 1 H 4.06331 10.0394 3.68903
216 1 H 3.99525 11.1587 1.97058
217 2 C 0.494024 10.1297 -0.0849209
218 2 C 0.386638 9.79368 17.3249
219 4 O 0.0120355 8.41578 17.1113
220 1 H -0.423207 10.0245 0.495439
221 1 H 1.17105 9.43219 0.444167
222 1 H 0.882039 11.1302 0.0286297
223 1 H 1.42192 10.0007 16.9967
224 1 H -0.327219 10.4844 16.838
225 1 H -0.879146 8.2899 16.7805
226 2 C 13.3368 4.89375 8.28695
227 2 C 12.8455 5.11271 6.81497
228 4 O 13.8359 5.41644 5.8358
229 1 H 13.6914 5.88043 8.72092
230 1 H 12.475 4.66338 8.88268
231 1 H 14.1342 4.209 8.35948
232 1 H 12.0207 5.83672 6.71737
233 1 H 12.4529 4.1456 6.47435
234 1 H 14.3486 6.19438 6.05237
235 2 C 17.364 17.3771 3.51393
236 2 C 16.9121 17.4516 2.11583
237 4 O 17.4278 -0.433301 1.27719
238 1 H -0.445198 17.1617 3.48835
239 1 H 17.1439 -0.634207 4.07599
240 1 H 16.9407 16.5155 3.90419
241 1 H 15.8315 17.3974 2.0363
242 1 H 17.2661 16.5715 1.55435
243 1 H 16.917 4.70273 5.49262
244 2 C 14.6631 13.3295 2.94345
245 2 C 13.3474 12.9543 2.14731
246 4 O 12.5531 12.3158 3.0758
247 1 H 15.6109 12.8331 2.55563
248 1 H 14.9109 14.3282 2.94372
249 1 H 14.3415 13.1932 4.05833
250 1 H 13.2699 12.6865 1.0766
251 1 H 12.7327 13.7689 1.99165
252 1 H 12.1905 11.4947 2.75826
253 2 C 1.98007 4.80952 14.8737
254 2 C 1.36212 6.08927 15.3445
255 4 O 1.84359 6.42092 16.6266
256 1 H 1.42473 4.5554 13.9526
257 1 H 2.94596 5.0537 14.571
258 1 H 1.981 3.94581 15.5299
259 1 H 0.291488 6.21816 15.451
260 1 H 1.72685 6.79345 14.5712
261 1 H 1.2106 7.08131 16.9611
262 2 C 1.99273 -0.389257 0.571605
263 2 C 2.74781 -0.253358 1.85339
264 4 O 2.74174 17.4687 2.63613
265 1 H 2.08785 17.5665 0.0755502
266 1 H 0.901817 -0.352255 0.785583
267 1 H 2.23064 0.358143 -0.159652
268 1 H 2.27657 0.563052 2.41097
269 1 H 3.76386 0.126567 1.70049
270 1 H 3.07005 16.7121 2.13315
271 2 C 14.1958 17.2495 -0.550492
272 2 C 14.1052 -0.0902758 -0.659483
273 4 O 15.2512 0.625172 -0.144782
274 1 H 14.1316 16.8617 0.469267
275 1 H 13.3977 16.9098 17.6649
276 1 H 15.1962 17.0018 -0.879589
277 1 H 13.2381 0.250649 -0.0678561
278 1 H 14.018 0.146188 17.1881
279 1 H 15.5887 1.27508 -0.828006
280 2 C 9.41105 0.643964 8.37194
281 2 C 8.99708 2.03034 8.74801
282 4 O 7.63471 2.05228 9.06199
283 1 H 9.02318 0.289848 7.42355
284 1 H 10.4949 0.712226 8.31489
285 1 H 9.09865 0.00193905 9.19955
286 1 H 9.19386 2.61205 7.87671
287 1 H 9.66588 2.33611 9.55621
288 1 H 7.25735 2.92592 8.95179
289 2 C 8.15778 6.19956 10.0265
290 2 C 7.4363 5.71361 8.75477
291 4 O 6.54129 4.67991 8.95642
292 1 H 8.78595 5.38333 10.4523
293 1 H 8.76497 7.11227 9.84746
294 1 H 7.42329 6.5118 10.7975
295 1 H 8.17632 5.35845 8.03375
296 1 H 7.06213 6.56486 8.17246
297 1 H 5.70948 4.8942 9.42305
298 2 C 14.4396 13.7184 7.4017
299 2 C 13.7595 12.4862 7.92108
300 4 O 13.2805 11.6528 6.82164
301 1 H 15.1893 14.0301 8.10761
302 1 H 14.8715 13.4377 6.47515
303 1 H 13.7493 14.5535 7.23048
304 1 H 12.9139 12.728 8.57347
305 1 H 14.3936 11.896 8.60188
306 1 H 12.6648 10.9928 7.1018
307 2 C 14.1374 7.50612 17.2949
308 2 C 14.6097 7.98347 15.859
309 4 O 15.9947 7.72423 15.6141
310 1 H 14.5052 8.0745 -0.788822
311 1 H 13.0345 7.46501 17.3458
312 1 H 14.5045 6.46961 17.4054
313 1 H 14.3228 9.03813 15.8267
314 1 H 13.968 7.41461 15.1513
315 1 H 16.2784 8.39122 14.9619
316 2 C 0.0198048 14.2951 7.71164
317 2 C 1.32884 13.7131 7.14048
318 4 O 2.43891 14.6003 7.47678
319 1 H -0.167101 15.2932 7.36762
320 1 H -0.828697 13.6941 7.4499
321 1 H 0.109326 14.3909 8.80443
322 1 H 1.27737 13.6768 6.00496
323 1 H 1.51999 12.6821 7.46082
324 1 H 2.61731 14.4298 8.39627
325 2 C 15.62 1.43189 9.57973
326 2 C 16.3769 0.254722 8.8913
327 4 O 17.498 -0.0757147 9.70901
328 1 H 16.0766 2.40356 9.32441
329 1 H 14.5523 1.50064 9.29734
330 1 H 15.7234 1.22889 10.6573
331 1 H 16.7987 0.521159 7.91034
332 1 H 15.7237 -0.593533 8.72433
333 1 H 17.2123 -0.280106 10.6318
334 2 C 1.66031 1.34209 9.79629
335 2 C 1.39855 1.25759 11.2708
336 4 O 0.0453971 1.62663 11.5055
337 1 H 2.5417 0.820987 9.49887
338 1 H 0.857229 0.727998 9.35296
339 1 H 1.53099 2.33063 9.38015
340 1 H 1.9532 2.01602 11.8591
341 1 H 1.58942 0.290062 11.7053
342 1 H -0.465193 1.36381 10.7468
343 2 C 7.83424 15.5403 -0.552022
344 2 C 9.06935 14.7237 -0.733814
345 4 O 8.97231 13.439 -0.00439218
346 1 H 7.92102 16.4064 17.8196
347 1 H 7.01121 15.0335 17.8877
348 1 H 7.64369 15.7328 0.46716
349 1 H 9.84404 15.1974 -0.12181
350 1 H 9.26901 14.4924 17.0777
351 1 H 8.36948 12.8792 -0.521195
352 2 C 4.87375 4.04441 13.3582
353 2 C 5.57283 4.52534 12.0367
354 4 O 4.5839 5.06889 11.1268
355 1 H 4.01513 3.39902 13.1587
356 1 H 5.50428 3.51868 14.0588
357 1 H 4.54147 4.96485 13.805
358 1 H 5.97288 3.68672 11.4575
359 1 H 6.35344 5.22705 12.2342
360 1 H 3.68783 4.97574 11.4929
361 2 C 11.0509 15.4907 10.1253
362 2 C 10.6532 14.7774 11.3634
363 4 O 11.2465 15.4576 12.5141
364 1 H 12.0348 15.9427 10.1603
365 1 H 10.9644 14.8188 9.2629
366 1 H 10.3115 16.3031 9.87544
367 1 H 10.9591 13.7231 11.4159
368 1 H 9.55001 14.7598 11.4109
369 1 H 10.5049 15.8795 12.9851
370 2 C 13.0036 9.15449 13.0801
371 2 C 12.3348 9.29465 11.6685
372 4 O 10.9242 9.62558 11.8048
373 1 H 13.8918 8.59147 12.9926
374 1 H 13.1722 10.1159 13.529
375 1 H 12.3218 8.64994 13.7365
376 1 H 12.4387 8.39035 11.0943
377 1 H 12.8392 10.0904 11.124
378 1 H 10.9033 10.2845 12.5243
379 2 C 1.91151 6.26782 3.71283
380 2 C 1.02113 5.98728 2.45389
381 4 O -0.356714 5.77706 2.92869
382 1 H 1.87095 7.315 4.05852
383 1 H 1.46659 5.72618 4.53374
384 1 H 2.89832 5.97439 3.45776
385 1 H 1.40315 5.17015 1.8508
386 1 H 1.03005 6.89321 1.8012
387 1 H 17.9071 6.27898 2.41057
388 2 C 15.4719 14.4719 10.9753
389 2 C 14.9977 13.1961 11.7555
390 4 O 13.5397 13.1382 12.0026
391 1 H 16.5455 14.422 10.8216
392 1 H 14.9869 14.5949 9.98656
393 1 H 15.252 15.3829 11.5776
394 1 H 15.4509 13.056 12.7167
395 1 H 15.3165 12.3514 11.1231
396 1 H 13.3191 14.0285 12.3176
397 2 C 0.684833 11.0262 12.3268
398 2 C 2.08774 10.8132 11.8567
399 4 O 2.30534 9.4636 11.5845
400 1 H 0.565944 10.8932 13.4233
401 1 H 0.445531 12.0566 12.0436
402 1 H 0.0685845 10.4386 11.6314
403 1 H 2.84669 11.2009 12.551
404 1 H 2.22099 11.4382 10.9327
405 1 H 3.11895 9.15995 12.0363
406 2 C 6.37191 6.75138 16.4637
407 2 C 4.92543 6.91092 16.5975
408 4 O 4.36643 7.35118 15.27
409 1 H 6.50031 6.14495 15.5777
410 1 H 6.91242 7.65176 16.2681
411 1 H 6.70612 6.25657 17.3905
412 1 H 4.6638 7.66449 17.3297
413 1 H 4.36554 6.08639 16.9384
414 1 H 3.52485 7.72446 15.5239
415 2 C 8.14267 6.58637 5.57445
416 2 C 8.64947 7.82937 6.13641
417 4 O 9.87771 8.37356 5.52468
418 1 H 7.1992 6.35603 6.0015
419 1 H 7.90794 6.66948 4.51389
420 1 H 8.78059 5.7194 5.71542
421 1 H 8.96547 7.59619 7.16891
422 1 H 7.92424 8.61942 6.22179
423 1 H 9.73465 9.3326 5.42428
424 2 C 4.45612 15.6992 4.35879
425 2 C 3.34908 14.7607 3.8697
426 4 O 3.48265 14.5936 2.43486
427 1 H 4.37136 16.6069 3.74735
428 1 H 4.23911 16.003 5.42787
429 1 H 5.38311 15.1651 4.2257
430 1 H 2.34624 15.1452 4.056
431 1 H 3.50452 13.8317 4.35212
432 1 H 3.43106 13.6513 2.33803
433 2 C 17.4869 4.61593 8.33627
434 2 C -0.666355 4.42386 7.00645
435 4 O 17.6038 5.15699 5.97777
436 1 H 16.5135 5.06861 8.11124
437 1 H 17.393 3.66821 8.88094
438 1 H -0.936509 5.38317 8.96482
439 1 H -0.480943 3.35184 6.74546
440 1 H 0.304352 4.82126 7.28175
441 1 H -0.755332 5.54199 5.34176
442 2 C 17.3412 4.07922 17.4392
443 2 C 17.3437 2.71361 16.8273
444 4 O 16.0461 2.1043 16.7365
445 1 H 17.375 4.10344 -0.365517
446 1 H -0.667827 4.65132 17.2246
447 1 H 16.5299 4.74919 17.1661
448 1 H -0.920989 2.04467 17.4029
449 1 H 17.707 2.86379 15.8325
450 1 H 15.4353 2.58759 16.1595
ITEM: TIMESTEP
7700
ITEM: NUMBER OF ATOMS
450
ITEM: BOX BOUNDS pp pp pp
-9.2722993816057020e-01 1.7852229938160626e+01
-9.2722993816057020e-01 1.7852229938160626e+01
-9.2722993816057020e-01 1.7852229938160626e+01
ITEM: ATOMS id type element x y z
1 2 C 13.7333 16.6356 5.16764
2 2 C 12.5601 17.112 5.86518
3 4 O 13.0046 -0.422108 6.4465
4 1 H 14.3612 16.2223 5.95066
5 1 H 13.4335 15.93 4.39605
6 1 H 14.286 17.4939 4.77387
7 1 H 12.246 16.3988 6.63856
8 1 H 11.6751 17.2648 5.20188
9 1 H 12.4805 -0.253936 7.22747
10 2 C 12.0643 14.9054 15.9584
11 2 C 13.3263 14.0714 15.6659
12 4 O 13.0209 12.7882 15.2097
13 1 H 11.583 15.3156 15.0506
14 1 H 11.3497 14.3221 16.535
15 1 H 12.2639 15.8087 16.5569
16 1 H 13.9622 13.9142 16.5183
17 1 H 13.9449 14.5751 14.9197
18 1 H 12.2566 12.8803 14.6251
19 2 C 13.3582 4.95783 1.76003
20 2 C 14.6789 5.46017 1.22051
21 4 O 15.7654 5.51858 2.04568
22 1 H 13.3404 4.96334 2.83007
23 1 H 12.5787 5.63147 1.49255
24 1 H 13.1122 3.95986 1.38571
25 1 H 14.6284 6.49637 0.818833
26 1 H 14.9607 4.89993 0.320446
27 1 H 15.7103 4.84678 2.75642
28 2 C -0.493009 9.31003 9.11991
29 2 C -0.528307 10.6878 8.49256
30 4 O 0.15034 10.7373 7.25704
31 1 H 0.557911 9.14952 9.41754
32 1 H 17.7006 9.28611 10.0563
33 1 H -0.837135 8.50622 8.52854
34 1 H -0.110684 11.4603 9.17896
35 1 H 17.2314 11.0865 8.23844
36 1 H 1.08877 10.8081 7.43429
37 2 C -0.702602 17.2149 15.0048
38 2 C 0.699365 17.7871 14.9723
39 4 O 1.51255 17.512 15.7855
40 1 H -0.716852 16.3701 15.6954
41 1 H 17.2784 -0.898587 15.2503
42 1 H 17.7823 16.8151 13.998
43 1 H 0.996225 -0.281179 14.247
44 1 H 16.6511 0.0855423 1.01399
45 1 H 7.09646 3.16357 7.04893
46 2 C 6.28895 14.1678 6.69592
47 2 C 7.51439 13.2539 6.68304
48 4 O 7.12273 12.1253 5.95666
49 1 H 5.89231 14.2709 7.69109
50 1 H 6.51818 15.1047 6.20126
51 1 H 5.51699 13.7002 6.06011
52 1 H 7.76102 12.893 7.69883
53 1 H 8.39829 13.7571 6.25181
54 1 H 7.92132 11.5942 5.86341
55 2 C 17.8479 5.11724 12.6944
56 2 C 16.2775 5.20132 12.753
57 4 O 15.8178 5.18945 14.1902
58 1 H -0.61333 4.37043 13.387
59 1 H -0.543427 4.95263 11.6476
60 1 H -0.44167 6.02932 12.7959
61 1 H 15.6983 4.41768 12.2516
62 1 H 15.9216 6.15419 12.3357
63 1 H 16.0504 6.01933 14.6139
64 2 C 10.3505 10.5644 8.0657
65 2 C 9.23522 10.9979 9.00743
66 4 O 8.75775 9.99877 9.85192
67 1 H 10.1755 9.60734 7.55275
68 1 H 10.6082 11.2931 7.30756
69 1 H 11.2109 10.3399 8.64476
70 1 H 8.36921 11.3384 8.46608
71 1 H 9.61121 11.8675 9.58327
72 1 H 9.3939 9.84072 10.5566
73 2 C 4.52222 1.35192 5.88233
74 2 C 4.17285 2.86732 5.91477
75 4 O 3.86767 3.37267 7.23554
76 1 H 5.54547 1.12043 5.72208
77 1 H 4.15983 0.805617 6.73007
78 1 H 4.07451 0.924666 4.98379
79 1 H 3.24909 2.99176 5.36378
80 1 H 5.00724 3.46401 5.47046
81 1 H 4.7263 3.45654 7.66525
82 2 C 6.67884 9.12252 12.6501
83 2 C 5.49355 8.49883 12.0144
84 4 O 4.34853 8.60434 12.8974
85 1 H 6.92824 8.75454 13.6044
86 1 H 7.50541 9.15766 11.9268
87 1 H 6.43572 10.1788 12.75
88 1 H 5.58285 7.48205 11.7573
89 1 H 5.18639 9.03622 11.0844
90 1 H 4.55182 7.94481 13.5786
91 2 C 12.4806 5.00899 15.0826
92 2 C 13.2655 4.00632 15.7487
93 4 O 14.1001 3.33187 14.8005
94 1 H 12.6619 4.93925 14.0296
95 1 H 11.4718 5.21868 15.2998
96 1 H 12.8765 6.00663 15.1736
97 1 H 12.7681 3.28948 16.4184
98 1 H 14.074 4.46813 16.3633
99 1 H 14.7233 4.02832 14.6388
100 2 C 7.19431 13.1152 11.4454
101 2 C 6.24381 13.2628 12.5244
102 4 O 6.82457 13.7735 13.7656
103 1 H 7.92328 12.4048 11.7432
104 1 H 6.67568 12.6763 10.5668
105 1 H 7.69791 14.0076 11.118
106 1 H 5.84811 12.2635 12.6282
107 1 H 5.42623 13.9098 12.2494
108 1 H 6.07694 13.7531 14.4062
109 2 C 0.690932 0.858189 5.81617
110 2 C 0.877638 -0.344516 6.74555
111 4 O 1.08736 17.2069 6.01056
112 1 H 1.34298 0.907664 4.95147
113 1 H -0.310248 0.911965 5.35946
114 1 H 0.817478 1.69235 6.49768
115 1 H 0.0134804 -0.612968 7.3425
116 1 H 1.67366 -0.141279 7.47318
117 1 H 1.85937 17.4375 5.42137
118 2 C 5.43412 10.4976 7.93466
119 2 C 4.36997 11.1656 8.72997
120 4 O 3.14249 10.4507 8.60769
121 1 H 5.40258 10.7187 6.88968
122 1 H 6.43937 10.6127 8.27333
123 1 H 5.37635 9.4231 8.05032
124 1 H 4.23767 12.2059 8.37526
125 1 H 4.64201 11.2062 9.75261
126 1 H 2.96511 9.96013 9.40743
127 2 C 4.98814 17.4434 15.2709
128 2 C 4.87989 15.9458 15.2815
129 4 O 4.3707 15.477 14.0491
130 1 H 4.15217 -0.868011 14.8186
131 1 H 5.02686 17.7627 16.3201
132 1 H 5.90572 17.6853 14.7412
133 1 H 4.27351 15.5485 16.0907
134 1 H 5.87884 15.5364 15.428
135 1 H 3.50923 15.8799 13.905
136 2 C 7.39789 11.2023 2.98378
137 2 C 8.3483 10.2919 3.77109
138 4 O 9.09203 10.9171 4.77888
139 1 H 8.01602 11.8829 2.38842
140 1 H 6.95771 10.6342 2.20281
141 1 H 6.71708 11.7201 3.62081
142 1 H 8.99713 9.77864 3.08339
143 1 H 7.65289 9.55538 4.26294
144 1 H 9.48713 11.7741 4.52499
145 2 C 8.22135 14.8371 3.78411
146 2 C 9.60936 14.9748 3.21278
147 4 O 10.4316 14.0286 3.8416
148 1 H 7.53156 15.5694 3.29205
149 1 H 7.78232 13.8578 3.57128
150 1 H 8.29278 15.1214 4.78921
151 1 H 9.99409 16.009 3.47008
152 1 H 9.61657 14.7752 2.14445
153 1 H 10.7736 13.5586 3.07619
154 2 C 14.8121 -0.602049 13.5546
155 2 C 15.8068 0.461079 13.363
156 4 O 16.8359 -0.0632808 12.5085
157 1 H 15.2359 17.3535 14.1641
158 1 H 13.8714 -0.258272 13.9886
159 1 H 14.67 17.7498 12.5635
160 1 H 16.1897 0.743449 14.3473
161 1 H 15.2933 1.32284 12.8959
162 1 H 17.4472 0.643921 12.2433
163 2 C 16.7302 8.65375 4.15151
164 2 C 15.9754 9.92959 4.71532
165 4 O 15.0774 9.53387 5.76351
166 1 H 15.9698 7.95898 3.7876
167 1 H 17.3894 9.00491 3.35177
168 1 H 17.3223 8.2009 4.95593
169 1 H 15.444 10.3593 3.85996
170 1 H 16.6612 10.6607 5.0749
171 1 H 14.5466 10.28 6.09159
172 2 C 13.8699 11.4355 17.6824
173 2 C 15.3631 11.9007 17.5909
174 4 O 15.8923 12.7994 -0.216046
175 1 H 13.6857 10.772 -0.298697
176 1 H 13.276 12.3396 -0.878138
177 1 H 13.4671 11.104 16.7516
178 1 H 15.5459 12.2396 16.5335
179 1 H 16.0582 11.0202 17.6138
180 1 H 15.2729 12.9971 0.478004
181 2 C 15.8611 2.11901 3.28769
182 2 C 15.3111 2.62907 4.5806
183 4 O 15.5928 4.02175 4.69781
184 1 H 15.2612 2.46402 2.44514
185 1 H 16.836 2.54653 3.19758
186 1 H 16.0234 1.05346 3.24645
187 1 H 15.6949 1.98198 5.34699
188 1 H 14.2556 2.43222 4.3772
189 1 H 15.0072 4.48414 5.29285
190 2 C 4.44242 16.7603 9.80736
191 2 C 5.88579 17.2787 9.52803
192 4 O 5.92571 -0.456565 8.59239
193 1 H 3.91384 16.5422 8.892
194 1 H 4.4835 15.8653 10.3807
195 1 H 3.83973 17.5224 10.3087
196 1 H 6.39416 16.4008 9.08814
197 1 H 6.5171 17.5636 10.4029
198 1 H 6.31665 0.384094 8.86948
199 2 C 8.19351 -0.638912 12.7853
200 2 C 8.02929 16.6296 12.6539
201 4 O 8.8148 15.8477 13.6445
202 1 H 7.36533 -0.225185 12.2142
203 1 H 8.1459 -0.285415 13.8261
204 1 H 9.12665 -0.3936 12.285
205 1 H 8.43467 16.3318 11.7081
206 1 H 6.97393 16.3102 12.7264
207 1 H 8.38589 15.0183 13.8014
208 2 C 2.60162 11.0484 4.77813
209 2 C 3.47993 10.6125 3.69774
210 4 O 3.35709 11.5752 2.63084
211 1 H 3.04545 11.8839 5.2964
212 1 H 1.69027 11.4703 4.3347
213 1 H 2.29823 10.2842 5.46973
214 1 H 3.1462 9.583 3.41011
215 1 H 4.57426 10.4938 3.88081
216 1 H 3.66221 11.2114 1.80581
217 2 C 0.632251 10.0677 -0.216999
218 2 C 0.664832 9.87178 17.061
219 4 O -0.0415779 8.67278 16.6614
220 1 H -0.432827 10.219 0.075192
221 1 H 1.05494 9.19719 0.345235
222 1 H 1.22675 10.883 0.180268
223 1 H 1.70573 9.80707 16.7975
224 1 H 0.336084 10.7261 16.52
225 1 H -0.772865 8.44084 17.2668
226 2 C 13.06 4.91022 8.32354
227 2 C 12.7319 5.21782 6.91403
228 4 O 13.9755 5.5978 6.33197
229 1 H 13.3846 5.81408 8.81473
230 1 H 12.1164 4.5855 8.78633
231 1 H 13.886 4.16866 8.31217
232 1 H 12.0534 6.04838 6.78677
233 1 H 12.2012 4.43128 6.3691
234 1 H 13.8546 6.51863 6.12934
235 2 C 17.2343 17.4926 3.74658
236 2 C 16.9982 17.3473 2.15381
237 4 O 17.4098 -0.246396 1.44102
238 1 H -0.576138 17.9504 3.9786
239 1 H 16.5109 -0.627929 4.18612
240 1 H 17.19 16.454 4.16689
241 1 H 15.9246 17.1844 1.92398
242 1 H 17.6445 16.5978 1.66486
243 1 H 17.3009 4.77248 5.26212
244 2 C 14.5538 13.5131 3.10467
245 2 C 13.407 12.9977 2.33695
246 4 O 12.4807 12.1496 3.19845
247 1 H 15.5421 13.318 2.70651
248 1 H 14.4337 14.6353 3.08476
249 1 H 14.3221 13.3484 4.15768
250 1 H 13.5301 12.5603 1.35093
251 1 H 12.554 13.7508 2.07182
252 1 H 12.2821 11.4961 2.53893
253 2 C 1.80364 4.79483 14.8933
254 2 C 1.27686 6.24534 15.1526
255 4 O 1.76755 6.55975 16.5716
256 1 H 1.85545 4.65515 13.8237
257 1 H 2.78215 4.7184 15.3436
258 1 H 1.10719 4.0239 15.2765
259 1 H 0.189916 6.4281 15.2034
260 1 H 1.71842 6.92778 14.419
261 1 H 1.27362 7.36337 16.7388
262 2 C 1.88457 -0.310585 0.358612
263 2 C 2.72532 -0.228047 1.63987
264 4 O 2.49096 17.4376 2.50132
265 1 H 2.22661 17.7205 -0.379636
266 1 H 0.861573 -0.646414 0.535879
267 1 H 1.81625 0.717541 -0.0527546
268 1 H 2.46102 0.682141 2.16504
269 1 H 3.78467 -0.118963 1.35907
270 1 H 2.79008 16.6252 2.06212
271 2 C 14.5543 17.5981 -0.81447
272 2 C 14.0813 0.0955396 -0.159334
273 4 O 15.0834 0.989219 0.296715
274 1 H 15.3232 17.1564 -0.163775
275 1 H 13.7139 16.8968 18.0051
276 1 H 14.9242 17.8878 16.978
277 1 H 13.4319 -0.133946 0.667624
278 1 H 13.4049 0.690128 17.9508
279 1 H 15.4262 1.45079 -0.44419
280 2 C 9.35278 0.689241 8.31045
281 2 C 8.85393 2.10987 8.81057
282 4 O 7.51111 2.02559 9.20505
283 1 H 8.8297 0.267404 7.45024
284 1 H 10.4416 0.690178 8.19368
285 1 H 9.06872 0.0184746 9.138
286 1 H 8.87295 2.85597 8.00339
287 1 H 9.53745 2.35609 9.6457
288 1 H 7.1624 2.93235 9.30125
289 2 C 8.25891 6.08776 10.125
290 2 C 7.43837 5.83602 8.92754
291 4 O 6.5639 4.67961 9.01957
292 1 H 8.70911 5.16633 10.5189
293 1 H 9.07551 6.74875 9.89449
294 1 H 7.63952 6.47049 10.9161
295 1 H 8.0811 5.68545 7.99812
296 1 H 6.82942 6.71678 8.79261
297 1 H 5.84559 4.8656 9.62975
298 2 C 14.6314 13.325 7.5572
299 2 C 13.9888 12.1041 8.18379
300 4 O 13.1231 11.4332 7.27353
301 1 H 15.4562 13.6141 8.2318
302 1 H 15.1319 13.0288 6.58837
303 1 H 14.0185 14.199 7.40472
304 1 H 13.4075 12.3295 9.08486
305 1 H 14.7649 11.4184 8.48942
306 1 H 12.5585 10.7873 7.68205
307 2 C 14.2925 7.97303 17.2174
308 2 C 14.4758 8.18154 15.7487
309 4 O 15.7998 7.68951 15.408
310 1 H 14.9695 8.64044 17.747
311 1 H 13.3358 8.26074 17.6365
312 1 H 14.4857 6.9163 17.5007
313 1 H 14.3533 9.24049 15.5928
314 1 H 13.7411 7.72485 15.1223
315 1 H 16.3467 8.44751 15.2099
316 2 C 0.0963442 14.299 7.84449
317 2 C 1.36513 13.9498 7.13919
318 4 O 2.47185 14.8055 7.45511
319 1 H -0.326965 15.2809 7.50914
320 1 H -0.640096 13.5392 7.58561
321 1 H 0.264508 14.223 8.92422
322 1 H 1.16632 13.9892 6.05972
323 1 H 1.59365 12.9256 7.43293
324 1 H 2.20177 15.3798 8.1729
325 2 C 15.5721 1.42191 9.69655
326 2 C 16.2235 0.351933 8.85729
327 4 O 17.3444 -0.298853 9.50628
328 1 H 16.0947 2.38232 9.46214
329 1 H 14.5522 1.57697 9.40909
330 1 H 15.5758 1.24752 10.7515
331 1 H 16.6513 0.797279 7.95825
332 1 H 15.5182 -0.424297 8.61376
333 1 H 17.0361 -0.745543 10.2969
334 2 C 1.85366 1.22766 9.967
335 2 C 1.22498 1.07758 11.3456
336 4 O -0.152949 1.49314 11.2841
337 1 H 2.91475 1.01555 9.96488
338 1 H 1.40728 0.448997 9.34115
339 1 H 1.59169 2.17893 9.55217
340 1 H 1.67973 1.7758 12.0632
341 1 H 1.3134 0.0618173 11.7865
342 1 H -0.526133 0.924495 10.5432
343 2 C 7.61828 15.2652 -0.643315
344 2 C 8.99673 14.6333 -0.845938
345 4 O 9.19912 13.5004 -0.0231577
346 1 H 7.37342 15.8975 17.2134
347 1 H 6.79248 14.5554 -0.667234
348 1 H 7.47236 15.9114 0.335113
349 1 H 9.83298 15.3145 -0.563067
350 1 H 9.14876 14.3839 16.9295
351 1 H 8.42125 12.9485 -0.118778
352 2 C 5.07265 4.16134 13.477
353 2 C 5.61818 4.08326 12.0943
354 4 O 4.90681 5.08956 11.2568
355 1 H 4.06423 3.77473 13.5027
356 1 H 5.6327 3.43022 14.0775
357 1 H 5.17793 5.17432 13.8949
358 1 H 5.48465 3.13046 11.6126
359 1 H 6.69049 4.33892 12.0396
360 1 H 4.09131 4.71631 10.8909
361 2 C 11.196 15.1416 10.1683
362 2 C 10.8852 14.7284 11.6504
363 4 O 11.3518 15.7239 12.5175
364 1 H 12.2502 15.0916 9.91034
365 1 H 10.5977 14.5951 9.43205
366 1 H 10.8922 16.1562 10.0531
367 1 H 11.3563 13.7924 11.9175
368 1 H 9.83406 14.5245 11.7695
369 1 H 10.6317 15.9063 13.1324
370 2 C 12.8492 9.11452 13.0168
371 2 C 12.0234 9.09275 11.7792
372 4 O 10.7795 9.699 11.9862
373 1 H 13.8995 8.8331 12.7531
374 1 H 12.8739 10.1588 13.4335
375 1 H 12.401 8.48023 13.7727
376 1 H 11.837 8.03461 11.5435
377 1 H 12.5722 9.57011 10.9676
378 1 H 10.8756 10.6371 12.148
379 2 C 1.68954 6.58178 3.96788
380 2 C 0.953477 6.12785 2.71304
381 4 O -0.437215 6.28236 2.91058
382 1 H 1.14295 7.43893 4.37777
383 1 H 1.75692 5.84822 4.78595
384 1 H 2.6749 6.87318 3.58134
385 1 H 1.21459 5.12157 2.39523
386 1 H 1.25295 6.78732 1.90207
387 1 H -0.934754 5.56729 2.49442
388 2 C 15.2494 14.4459 10.9796
389 2 C 14.9408 13.1342 11.5869
390 4 O 13.5246 13.0424 11.8168
391 1 H 16.247 14.5864 10.5715
392 1 H 14.538 14.6672 10.192
393 1 H 15.1124 15.1702 11.7514
394 1 H 15.4079 12.9673 12.5703
395 1 H 15.1331 12.3359 10.8733
396 1 H 13.2848 13.7863 12.3276
397 2 C 0.658675 11.1099 12.3648
398 2 C 2.09072 10.8763 11.77
399 4 O 2.32223 9.56662 11.241
400 1 H 0.548413 10.2725 13.0485
401 1 H 0.564321 12.0547 12.9085
402 1 H -0.0860755 11.1526 11.5876
403 1 H 2.81355 11.0192 12.5725
404 1 H 2.34037 11.5798 11.0149
405 1 H 2.93821 9.10234 11.8072
406 2 C 6.49721 6.31728 16.4947
407 2 C 5.04306 6.8329 16.7378
408 4 O 4.48174 7.05583 15.3947
409 1 H 6.37306 5.3354 16.0637
410 1 H 7.12478 6.95085 15.7887
411 1 H 6.99178 6.24232 17.4609
412 1 H 4.91999 7.70578 17.4228
413 1 H 4.38557 6.0384 17.1459
414 1 H 3.56452 6.82309 15.522
415 2 C 8.28435 6.52782 5.54924
416 2 C 8.77332 7.76531 6.36831
417 4 O 9.90803 8.16825 5.64499
418 1 H 7.47124 5.93686 6.00672
419 1 H 7.93261 6.74217 4.53339
420 1 H 9.13389 5.82811 5.4519
421 1 H 9.00139 7.50544 7.4012
422 1 H 8.0711 8.61707 6.44672
423 1 H 10.0407 9.09383 5.80451
424 2 C 4.5391 15.6217 4.24281
425 2 C 3.35927 14.7945 3.78391
426 4 O 3.44065 14.5386 2.36807
427 1 H 4.4433 16.6374 3.88147
428 1 H 4.389 15.6315 5.33261
429 1 H 5.51724 15.1396 3.99121
430 1 H 2.46436 15.3545 3.9551
431 1 H 3.32856 13.8675 4.43628
432 1 H 2.78237 13.88 2.23037
433 2 C 17.3869 4.63335 8.18993
434 2 C -0.547266 4.40824 6.93247
435 4 O 17.8762 5.27405 5.82228
436 1 H 16.6369 3.8803 8.07432
437 1 H -0.834364 4.38606 9.08537
438 1 H 16.8263 5.57463 8.22984
439 1 H -0.790534 3.38662 6.59714
440 1 H 0.491244 4.5427 7.26387
441 1 H -0.247825 5.70028 5.30873
442 2 C 17.4465 4.10447 17.3317
443 2 C 17.5348 2.65156 16.8831
444 4 O 16.2231 2.10141 16.712
445 1 H 16.5748 4.28542 -0.814772
446 1 H -0.47191 4.53367 17.8705
447 1 H 17.2658 4.84838 16.5605
448 1 H -0.83702 2.08943 17.7325
449 1 H -0.584699 2.46864 16.0015
450 1 H 15.6183 2.45456 16.031
ITEM: TIMESTEP
7800
ITEM: NUMBER OF ATOMS
450
ITEM: BOX BOUNDS pp pp pp
-8.7893528586936043e-01 1.7803935285869429e+01
-8.7893528586936043e-01 1.7803935285869429e+01
-8.7893528586936043e-01 1.7803935285869429e+01
ITEM: ATOMS id type element x y z
1 2 C 13.652 16.6496 5.01264
2 2 C 12.564 17.0082 6.16404
3 4 O 12.8632 -0.471381 6.80631
4 1 H 14.6429 16.7236 5.46594
5 1 H 13.3917 15.6567 4.75178
6 1 H 13.6232 17.3229 4.17491
7 1 H 12.6329 16.1819 6.89588
8 1 H 11.596 16.9526 5.70941
9 1 H 12.089 0.0458896 7.0212
10 2 C 11.8517 14.5661 15.8203
11 2 C 13.2138 14.1325 15.3349
12 4 O 13.2224 12.8296 14.7089
13 1 H 11.2387 14.8784 14.9568
14 1 H 11.4204 13.8308 16.4623
15 1 H 11.8807 15.4194 16.4595
16 1 H 13.9512 14.0784 16.1514
17 1 H 13.6127 14.8974 14.6682
18 1 H 13.4255 12.9287 13.7591
19 2 C 13.5807 5.02595 1.56365
20 2 C 14.924 5.69221 1.16254
21 4 O 16.1167 5.15995 1.84419
22 1 H 13.468 5.21184 2.64768
23 1 H 12.7359 5.64635 1.08288
24 1 H 13.4195 3.98605 1.40472
25 1 H 14.9086 6.74382 1.39832
26 1 H 15.1631 5.51607 0.108726
27 1 H 15.8742 4.9953 2.75596
28 2 C -0.742866 9.5978 9.1596
29 2 C -0.544531 10.903 8.43595
30 4 O 0.399652 10.8529 7.35626
31 1 H 0.215399 9.25808 9.56003
32 1 H 17.2932 9.71318 10.0179
33 1 H 17.5554 8.78043 8.5379
34 1 H -0.237116 11.7014 9.09685
35 1 H 17.2706 11.2298 7.94325
36 1 H 1.32094 10.7992 7.68074
37 2 C -0.849902 17.388 15.275
38 2 C 0.540777 17.7115 15.1755
39 4 O 1.40322 17.238 15.8334
40 1 H 17.4974 16.8936 16.1543
41 1 H 17.078 -0.568939 15.0932
42 1 H 17.758 16.657 14.4573
43 1 H 0.966311 -0.27389 14.4065
44 1 H 16.3008 0.0336563 1.505
45 1 H 6.48702 2.88026 7.3729
46 2 C 6.25202 14.3104 6.92582
47 2 C 7.51639 13.4469 6.852
48 4 O 7.11245 12.1966 6.20351
49 1 H 5.55191 13.7261 7.50071
50 1 H 6.4972 15.2746 7.36662
51 1 H 5.8807 14.5208 5.91078
52 1 H 7.88119 13.1694 7.81737
53 1 H 8.32102 13.932 6.3215
54 1 H 7.94509 11.7265 6.06558
55 2 C 17.6525 4.98925 12.6085
56 2 C 16.283 5.11764 13.019
57 4 O 16.1832 5.35182 14.3833
58 1 H -0.465736 4.19427 13.1747
59 1 H -0.888294 4.92636 11.5364
60 1 H -0.545131 5.99223 12.8592
61 1 H 15.7246 4.20368 12.8676
62 1 H 15.9003 6.02739 12.5424
63 1 H 15.9097 6.2585 14.5682
64 2 C 10.2233 10.6847 8.13342
65 2 C 9.19451 11.1302 9.09769
66 4 O 8.74193 10.0184 9.96568
67 1 H 9.86737 10.1228 7.29552
68 1 H 10.7826 11.5181 7.69405
69 1 H 10.9738 10.0433 8.65771
70 1 H 8.28867 11.4668 8.55112
71 1 H 9.57709 11.9736 9.65693
72 1 H 9.3821 9.9084 10.6834
73 2 C 4.31961 1.33858 5.59282
74 2 C 4.07328 2.7698 5.78657
75 4 O 4.1303 3.26073 7.15824
76 1 H 5.15641 1.00412 6.26294
77 1 H 3.48276 0.708989 5.94019
78 1 H 4.47303 1.05816 4.54754
79 1 H 3.05788 3.0468 5.46674
80 1 H 4.67948 3.39837 5.14832
81 1 H 4.97891 2.97786 7.50807
82 2 C 6.62277 9.04554 12.6814
83 2 C 5.41149 8.39852 12.0077
84 4 O 4.17991 8.43018 12.7721
85 1 H 7.094 8.39165 13.5021
86 1 H 7.39778 9.16886 11.9018
87 1 H 6.33672 10.0168 13.1321
88 1 H 5.59078 7.37445 11.5972
89 1 H 5.14855 9.03051 11.1931
90 1 H 4.29499 8.0525 13.659
91 2 C 12.6003 5.05473 14.8513
92 2 C 13.3201 3.85895 15.5985
93 4 O 14.3314 3.24836 14.8032
94 1 H 11.8835 4.79028 13.9575
95 1 H 11.8339 5.56868 15.5265
96 1 H 13.2399 5.82379 14.4348
97 1 H 12.5462 3.09346 15.8521
98 1 H 13.721 4.08209 16.5669
99 1 H 15.0516 3.92455 14.7515
100 2 C 7.17898 12.9445 11.3932
101 2 C 6.18614 13.0357 12.5968
102 4 O 6.9495 13.5265 13.7114
103 1 H 7.8838 12.1174 11.5263
104 1 H 6.59482 12.7765 10.4759
105 1 H 7.84192 13.8221 11.2403
106 1 H 5.78548 11.9963 12.6965
107 1 H 5.34325 13.6988 12.4075
108 1 H 6.84785 12.9619 14.4919
109 2 C 0.957772 0.988062 5.54757
110 2 C 0.905045 -0.15289 6.57403
111 4 O 0.777258 17.1671 5.9769
112 1 H 1.73985 0.80077 4.77523
113 1 H 0.0155012 1.14146 5.02219
114 1 H 1.24399 1.87368 6.07706
115 1 H 0.12698 -0.185038 7.30126
116 1 H 1.84616 -0.110773 7.13146
117 1 H 0.999866 17.2567 5.05074
118 2 C 5.37761 10.1987 7.65099
119 2 C 4.46779 10.877 8.64812
120 4 O 3.14528 10.3866 8.4406
121 1 H 4.98744 10.3354 6.63323
122 1 H 6.40084 10.5515 7.57562
123 1 H 5.44596 9.09019 7.83557
124 1 H 4.54808 11.916 8.37138
125 1 H 4.89793 10.7937 9.71186
126 1 H 2.82984 10.0989 9.3334
127 2 C 5.09091 17.4017 15.496
128 2 C 4.82786 15.9338 15.2985
129 4 O 4.28902 15.5416 13.9893
130 1 H 4.12808 -0.761613 15.7557
131 1 H 5.76479 17.5303 16.3573
132 1 H 5.57888 17.9428 14.6299
133 1 H 4.12068 15.6311 16.0682
134 1 H 5.74926 15.334 15.5071
135 1 H 3.39021 15.8889 13.8991
136 2 C 7.62287 11.4126 3.07991
137 2 C 8.50754 10.2301 3.55833
138 4 O 9.29848 10.6379 4.72872
139 1 H 8.19367 12.2918 2.81572
140 1 H 7.01046 11.0972 2.19965
141 1 H 6.96703 11.6806 3.9212
142 1 H 9.20088 9.80574 2.7896
143 1 H 7.8433 9.43317 3.91775
144 1 H 9.69712 11.4911 4.54197
145 2 C 8.30928 14.9795 3.93419
146 2 C 9.79109 14.7555 3.43419
147 4 O 10.2242 13.5368 4.09736
148 1 H 7.59772 15.2642 3.14917
149 1 H 8.06312 13.9633 4.30308
150 1 H 8.16483 15.727 4.7457
151 1 H 10.3773 15.5557 3.77218
152 1 H 9.84632 14.7471 2.32688
153 1 H 11.1123 13.2988 3.8299
154 2 C 14.377 -0.593963 13.3386
155 2 C 15.4592 0.43974 13.0763
156 4 O 16.6147 -0.220824 12.5759
157 1 H 14.5868 17.4881 14.2052
158 1 H 13.4235 -0.0626292 13.4715
159 1 H 14.2109 17.4736 12.4712
160 1 H 15.632 1.01233 14.0078
161 1 H 15.0802 1.17786 12.3739
162 1 H 17.2871 0.352458 12.1817
163 2 C 16.6534 8.78843 3.8476
164 2 C 16.0252 9.96858 4.53203
165 4 O 15.1774 9.48619 5.54694
166 1 H 15.9201 8.00864 3.69819
167 1 H 17.1207 9.16988 2.93455
168 1 H 17.4646 8.48178 4.49534
169 1 H 15.4382 10.4982 3.78574
170 1 H 16.8559 10.6012 4.95314
171 1 H 14.8333 10.2255 6.06275
172 2 C 14.0339 11.5038 17.609
173 2 C 15.3641 12.0442 17.2754
174 4 O 15.7348 12.9229 -0.373979
175 1 H 14.2773 10.9456 -0.141702
176 1 H 13.1634 12.1202 17.8643
177 1 H 13.8247 10.7948 16.8098
178 1 H 15.2662 12.5466 16.3409
179 1 H 16.0613 11.2154 17.1516
180 1 H 16.6822 13.0006 -0.130782
181 2 C 15.3664 2.17074 3.36779
182 2 C 15.0133 2.77177 4.80275
183 4 O 15.4131 4.10427 4.98364
184 1 H 14.934 2.63836 2.48752
185 1 H 16.451 1.99425 3.28589
186 1 H 14.8941 1.17241 3.26203
187 1 H 15.6586 2.125 5.3772
188 1 H 13.9663 2.5452 4.89178
189 1 H 14.8564 4.71059 5.50458
190 2 C 4.34708 16.6716 9.93225
191 2 C 5.62069 17.4519 9.92722
192 4 O 5.65326 -0.359586 8.75922
193 1 H 4.2759 15.8996 9.16716
194 1 H 4.22577 16.1464 10.9049
195 1 H 3.51304 17.3633 9.75429
196 1 H 6.46259 16.7373 9.94736
197 1 H 5.78206 -0.606375 10.763
198 1 H 6.26425 0.375165 8.87343
199 2 C 8.51175 -0.913623 12.7797
200 2 C 7.95158 16.3978 12.5706
201 4 O 8.62998 15.6587 13.5631
202 1 H 8.05096 -0.150485 12.1352
203 1 H 8.31152 -0.67717 13.8333
204 1 H 9.56309 -1.03405 12.4976
205 1 H 8.12086 15.8797 11.5832
206 1 H 6.91817 16.2953 12.8411
207 1 H 8.30933 14.7361 13.6521
208 2 C 2.79041 11.1853 4.87694
209 2 C 3.78991 10.8865 3.77175
210 4 O 3.59151 11.7581 2.66715
211 1 H 3.00728 12.1077 5.39817
212 1 H 1.74177 11.191 4.57412
213 1 H 2.84154 10.3644 5.59601
214 1 H 3.58275 9.84597 3.59069
215 1 H 4.79478 10.9233 4.07042
216 1 H 4.31957 11.7417 2.04547
217 2 C 0.752674 10.0322 -0.337828
218 2 C 0.831479 9.94156 16.8493
219 4 O -0.144446 9.05655 16.3739
220 1 H -0.21686 10.3854 -0.0688365
221 1 H 0.974663 9.13782 0.159075
222 1 H 1.47152 10.7366 0.0885999
223 1 H 1.84986 9.63225 16.5345
224 1 H 0.608978 10.9464 16.3613
225 1 H -0.89069 9.21567 16.9778
226 2 C 12.6534 4.86745 8.48552
227 2 C 12.7771 5.42525 7.03389
228 4 O 14.1018 5.81225 6.58751
229 1 H 13.0577 5.65862 9.05333
230 1 H 11.5811 4.69696 8.66822
231 1 H 13.226 3.92417 8.61623
232 1 H 12.1261 6.29779 6.84275
233 1 H 12.5037 4.66884 6.29302
234 1 H 14.2194 6.77081 6.64298
235 2 C 17.2174 17.4633 3.74875
236 2 C 17.1954 17.2449 2.30669
237 4 O 17.2585 -0.0894478 1.71165
238 1 H -0.520651 17.8849 3.93577
239 1 H 16.4151 -0.510139 3.97955
240 1 H 17.0089 16.5537 4.34789
241 1 H 16.2119 16.739 2.0284
242 1 H -0.659896 16.7417 1.88174
243 1 H 16.9927 4.81396 5.34373
244 2 C 14.4302 13.6582 3.39263
245 2 C 13.3074 13.0259 2.42421
246 4 O 12.5982 12.0084 3.1519
247 1 H 15.0996 12.8241 3.56098
248 1 H 15.0509 14.3582 2.66998
249 1 H 14.121 14.2397 4.28284
250 1 H 13.909 12.5904 1.59538
251 1 H 12.4941 13.5827 2.1701
252 1 H 12.4367 11.4193 2.41931
253 2 C 1.56523 4.75978 14.9762
254 2 C 1.14462 6.19614 15.1092
255 4 O 1.57969 6.70906 16.3045
256 1 H 1.77157 4.41265 13.9749
257 1 H 2.43069 4.59836 15.6862
258 1 H 0.688886 4.25813 15.3775
259 1 H 0.0794315 6.2593 15.1696
260 1 H 1.46233 6.7954 14.2325
261 1 H 1.08696 7.54829 16.348
262 2 C 1.80648 -0.241612 0.13655
263 2 C 2.58645 -0.228253 1.45921
264 4 O 2.1972 17.4341 2.35504
265 1 H 2.05022 17.4849 -0.324123
266 1 H 0.759283 -0.13451 0.274459
267 1 H 2.11218 0.556104 -0.530493
268 1 H 2.39532 0.694203 2.003
269 1 H 3.62925 -0.302222 1.15054
270 1 H 2.35501 16.5775 1.95168
271 2 C 14.8024 -0.44902 17.6462
272 2 C 14.2648 0.0948385 0.304038
273 4 O 14.895 1.3443 0.431021
274 1 H 15.8573 -0.556064 -0.893886
275 1 H 14.3895 17.2703 17.5044
276 1 H 14.463 0.252239 16.8918
277 1 H 14.5376 -0.574283 1.15565
278 1 H 13.2127 0.22779 0.42107
279 1 H 15.2213 1.59499 -0.483714
280 2 C 9.16684 0.837474 8.3478
281 2 C 8.69164 2.14299 8.85305
282 4 O 7.30371 1.97459 9.30395
283 1 H 8.30158 0.467117 7.80297
284 1 H 10.0063 0.958962 7.66461
285 1 H 9.43688 0.0849517 9.06605
286 1 H 8.80586 2.98624 8.15549
287 1 H 9.31313 2.42464 9.70152
288 1 H 6.88028 2.85922 9.34635
289 2 C 8.32007 5.9431 10.3208
290 2 C 7.53976 5.69767 8.96465
291 4 O 6.56896 4.62815 9.14147
292 1 H 9.15048 5.27295 10.5041
293 1 H 8.80942 6.91158 10.241
294 1 H 7.65831 5.89682 11.1771
295 1 H 8.16055 5.36746 8.17537
296 1 H 6.97405 6.60357 8.77935
297 1 H 5.93395 4.92073 9.8557
298 2 C 14.9248 12.9198 7.73167
299 2 C 14.3153 11.7107 8.35851
300 4 O 13.3547 11.2774 7.43153
301 1 H 15.57 13.5783 8.32503
302 1 H 15.5629 12.6983 6.86995
303 1 H 14.0777 13.4894 7.37433
304 1 H 13.7708 11.9873 9.267
305 1 H 15.0668 10.9012 8.50482
306 1 H 12.9396 10.4685 7.77354
307 2 C 14.4926 8.29295 17.1644
308 2 C 14.6078 8.51899 15.6918
309 4 O 15.8098 7.93242 15.139
310 1 H 15.3448 8.72488 17.735
311 1 H 13.6773 8.85386 17.5777
312 1 H 14.3561 7.29247 17.5146
313 1 H 14.6626 9.61188 15.5479
314 1 H 13.772 8.12239 15.1501
315 1 H 16.3035 7.65077 15.8967
316 2 C 0.198467 14.32 7.9605
317 2 C 1.50593 14.1317 7.14849
318 4 O 2.45776 15.087 7.47976
319 1 H -0.112079 15.3428 7.79684
320 1 H -0.582891 13.6328 7.61664
321 1 H 0.339684 14.0974 9.00001
322 1 H 1.22833 14.1387 6.11948
323 1 H 1.92479 13.174 7.42127
324 1 H 2.87091 15.4603 6.69314
325 2 C 15.4166 1.37576 9.7157
326 2 C 16.0492 0.350472 8.79352
327 4 O 17.0977 -0.406093 9.3905
328 1 H 16.0465 1.71251 10.5182
329 1 H 15.1643 2.26812 9.13114
330 1 H 14.4477 1.10577 10.1431
331 1 H 16.5387 0.783906 7.92203
332 1 H 15.2918 -0.389243 8.41022
333 1 H 16.7841 -0.793152 10.2121
334 2 C 2.196 1.11907 10.2214
335 2 C 1.13417 1.09453 11.3196
336 4 O -0.199025 1.53497 10.9551
337 1 H 3.14184 0.818152 10.7512
338 1 H 2.01966 0.48159 9.36022
339 1 H 2.39778 2.17914 9.93358
340 1 H 1.5367 1.66626 12.1167
341 1 H 1.00984 0.0559796 11.6477
342 1 H -0.452334 0.878969 10.3241
343 2 C 7.42948 14.9828 -0.723493
344 2 C 8.7994 14.4757 17.6591
345 4 O 9.4172 13.7031 -0.00678539
346 1 H 7.16407 15.9566 17.5284
347 1 H 6.64754 14.2635 17.7369
348 1 H 7.34604 15.1413 0.295012
349 1 H 9.50266 15.2036 17.3592
350 1 H 8.83303 13.857 16.6845
351 1 H 8.96596 12.8734 0.036401
352 2 C 5.37642 4.09611 13.6097
353 2 C 5.58996 3.79931 12.1461
354 4 O 5.21559 4.87454 11.3339
355 1 H 4.31449 4.05102 13.8369
356 1 H 5.86828 3.29996 14.172
357 1 H 5.76 5.06945 13.9234
358 1 H 5.13025 2.89759 11.722
359 1 H 6.68071 3.71175 11.902
360 1 H 4.37453 5.26908 11.5225
361 2 C 11.3307 14.763 10.242
362 2 C 10.92 14.7668 11.664
363 4 O 11.6593 15.7001 12.4844
364 1 H 12.4297 14.6556 10.2303
365 1 H 10.9525 13.8906 9.70884
366 1 H 11.0658 15.6781 9.72792
367 1 H 11.1059 13.7534 12.0907
368 1 H 9.8826 15.0045 11.7532
369 1 H 10.9811 15.9907 13.0968
370 2 C 12.718 9.11475 12.914
371 2 C 11.6742 9.0063 11.7991
372 4 O 10.546 9.8728 12.0111
373 1 H 13.4383 8.29684 12.897
374 1 H 13.307 9.99586 12.8453
375 1 H 12.1923 9.06982 13.8638
376 1 H 11.2869 7.98729 11.8132
377 1 H 12.1043 9.20062 10.7924
378 1 H 10.8324 10.6608 12.4506
379 2 C 1.59979 6.91768 4.14101
380 2 C 0.871408 6.36073 2.92505
381 4 O -0.479837 6.56091 3.13911
382 1 H 0.950771 7.72133 4.42944
383 1 H 1.68631 6.14911 4.92875
384 1 H 2.64435 7.24128 3.97421
385 1 H 1.05853 5.27331 2.73733
386 1 H 1.18145 6.89704 2.02595
387 1 H 17.6737 6.34424 2.36502
388 2 C 15.1365 14.5496 11.0238
389 2 C 14.8801 13.0969 11.4536
390 4 O 13.5617 12.922 11.817
391 1 H 16.2322 14.6626 10.868
392 1 H 14.7124 14.8565 10.0813
393 1 H 14.941 15.3085 11.7991
394 1 H 15.466 12.8123 12.3218
395 1 H 15.1236 12.393 10.6707
396 1 H 13.1428 13.7981 11.7046
397 2 C 0.750571 11.0163 12.3751
398 2 C 2.12605 11.0115 11.7796
399 4 O 2.22664 9.82765 10.9338
400 1 H 0.658956 10.0592 12.8779
401 1 H 0.673206 11.8427 13.0778
402 1 H -0.0698345 11.0342 11.6478
403 1 H 2.85262 10.8647 12.5916
404 1 H 2.37404 11.8537 11.1119
405 1 H 2.66676 9.10961 11.424
406 2 C 6.59098 5.91042 16.5217
407 2 C 5.34271 6.76526 16.7553
408 4 O 4.49124 6.79176 15.6665
409 1 H 6.25742 4.86994 16.364
410 1 H 7.16562 6.31841 15.7181
411 1 H 7.18278 5.88603 17.4118
412 1 H 5.64305 7.77243 17.0816
413 1 H 4.70337 6.28703 17.4732
414 1 H 3.66 6.37814 15.9569
415 2 C 8.28321 6.4321 5.55145
416 2 C 8.94647 7.53186 6.34154
417 4 O 10.1423 8.09474 5.76011
418 1 H 7.27222 6.22145 5.95718
419 1 H 8.23076 6.67002 4.50216
420 1 H 8.82484 5.50899 5.60096
421 1 H 9.21349 7.1366 7.32586
422 1 H 8.24224 8.34968 6.50948
423 1 H 9.86932 8.91072 5.33085
424 2 C 4.48097 15.7606 4.12348
425 2 C 3.3393 14.7853 3.74466
426 4 O 3.20708 14.7098 2.32393
427 1 H 4.56224 16.4853 3.336
428 1 H 4.33208 16.251 5.04536
429 1 H 5.47145 15.2751 4.15131
430 1 H 2.31125 15.1312 4.07929
431 1 H 3.4348 13.7968 4.22105
432 1 H 3.49528 13.8173 2.10003
433 2 C 17.3273 4.69815 7.90578
434 2 C -0.365413 4.44081 6.73608
435 4 O -0.868216 5.26185 5.61645
436 1 H 16.9691 3.71349 8.23187
437 1 H -1.04532 5.28382 8.77163
438 1 H 16.5014 5.19727 7.443
439 1 H -0.330623 3.38524 6.43326
440 1 H 0.638762 4.74737 6.97311
441 1 H -0.254787 5.28216 4.80493
442 2 C 17.5661 4.07493 17.132
443 2 C 17.5797 2.57018 17.0023
444 4 O 16.3069 2.0348 16.7155
445 1 H 17.1104 4.39426 -0.644137
446 1 H -0.119298 4.48367 17.1393
447 1 H 17.039 4.65064 16.3681
448 1 H -0.724583 2.19466 -0.747631
449 1 H -0.391148 2.20197 16.2931
450 1 H 15.8701 2.43271 15.9665
ITEM: TIMESTEP
7900
ITEM: NUMBER OF ATOMS
450
ITEM: BOX BOUNDS pp pp pp
-8.5446446016491784e-01 1.7779464460164988e+01
-8.5446446016491784e-01 1.7779464460164988e+01
-8.5446446016491784e-01 1.7779464460164988e+01
ITEM: ATOMS id type element x y z
1 2 C 13.3051 16.9942 5.07514
2 2 C 12.5984 16.9425 6.37391
3 4 O 12.7768 -0.45182 7.10468
4 1 H 14.3823 16.9623 5.32116
5 1 H 13.0539 16.1371 4.45639
6 1 H 13.0417 -0.659192 4.65871
7 1 H 12.9943 16.1179 6.96402
8 1 H 11.5571 16.7448 6.10244
9 1 H 12.3633 -0.652174 7.95364
10 2 C 11.7262 14.1426 15.6456
11 2 C 13.0362 14.2507 14.9043
12 4 O 13.454 12.9529 14.4575
13 1 H 11.0277 13.5491 15.0619
14 1 H 11.8313 13.6888 16.6577
15 1 H 11.2959 15.1524 15.8388
16 1 H 13.8228 14.5437 15.6006
17 1 H 12.9876 15.0062 14.1034
18 1 H 13.0948 12.7579 13.5979
19 2 C 13.9533 5.13299 1.30032
20 2 C 15.2786 5.8227 1.36274
21 4 O 16.3057 4.86337 1.70335
22 1 H 13.4756 5.1126 2.28532
23 1 H 13.3012 5.5865 0.598432
24 1 H 14.0739 4.09051 0.999904
25 1 H 15.2774 6.53185 2.21608
26 1 H 15.5554 6.3242 0.442085
27 1 H 15.8945 4.23619 2.30623
28 2 C 17.7205 9.85197 9.06407
29 2 C -0.458211 11.1082 8.38628
30 4 O 0.571719 10.8828 7.41641
31 1 H -0.248832 9.32962 9.72914
32 1 H 16.8233 10.0787 9.63213
33 1 H 17.4068 9.16421 8.2408
34 1 H -0.0599248 11.8761 9.05701
35 1 H 17.3548 11.4969 7.80338
36 1 H 1.36087 10.6256 7.89077
37 2 C 17.6295 17.53 15.7682
38 2 C 0.397068 17.6367 15.3473
39 4 O 1.33765 16.9299 15.6855
40 1 H 17.3474 16.9074 16.6563
41 1 H 17.1049 -0.122446 15.9898
42 1 H 17.052 17.1463 14.9488
43 1 H 0.655108 -0.409566 14.4693
44 1 H 16.5238 0.478914 1.67639
45 1 H 6.87099 2.63752 7.30099
46 2 C 6.21983 14.4937 7.25531
47 2 C 7.47241 13.6272 7.25606
48 4 O 7.33196 12.4891 6.42353
49 1 H 5.31252 13.8949 7.4403
50 1 H 6.363 15.0996 8.14441
51 1 H 6.12726 15.089 6.36569
52 1 H 7.74386 13.2376 8.2587
53 1 H 8.35518 14.2242 6.94905
54 1 H 8.24736 12.2629 6.21167
55 2 C 17.6511 4.79142 12.2702
56 2 C 16.2971 5.09374 13.0233
57 4 O 16.3726 5.34115 14.4144
58 1 H -0.410141 3.94777 12.6308
59 1 H 17.3501 4.44921 11.2697
60 1 H -0.323019 5.66701 12.216
61 1 H 15.7156 4.16831 12.8844
62 1 H 15.7735 5.93849 12.529
63 1 H 16.2436 6.29372 14.6021
64 2 C 10.0843 10.7432 8.27359
65 2 C 9.01739 11.1393 9.31157
66 4 O 8.5976 9.99728 10.015
67 1 H 9.70536 9.92679 7.69539
68 1 H 10.1999 11.5387 7.52931
69 1 H 11.0783 10.4769 8.62838
70 1 H 8.17983 11.5582 8.76862
71 1 H 9.43304 11.8949 10.0017
72 1 H 9.17245 9.93002 10.8
73 2 C 4.43419 1.29245 5.51904
74 2 C 4.14197 2.80182 5.67781
75 4 O 4.03431 3.06964 7.01857
76 1 H 5.34329 1.04126 6.058
77 1 H 3.68714 0.690425 6.05723
78 1 H 4.40013 0.950028 4.5047
79 1 H 3.206 3.12768 5.24011
80 1 H 4.87647 3.45662 5.18938
81 1 H 4.91652 2.9269 7.36624
82 2 C 6.43956 8.86372 12.8147
83 2 C 5.27211 8.35598 11.9465
84 4 O 4.09303 8.189 12.7095
85 1 H 6.54603 8.19602 13.6289
86 1 H 7.34045 8.74562 12.3038
87 1 H 6.27043 9.83771 13.1893
88 1 H 5.54213 7.39683 11.452
89 1 H 5.07932 9.07157 11.1734
90 1 H 4.28915 7.83813 13.5782
91 2 C 12.6833 4.83358 14.7089
92 2 C 13.3829 3.74303 15.4732
93 4 O 14.6587 3.25148 15.1089
94 1 H 11.7685 4.50282 14.3335
95 1 H 12.3092 5.62871 15.344
96 1 H 13.3341 5.2326 13.9236
97 1 H 12.7691 2.90645 15.1694
98 1 H 13.2205 3.88229 16.5742
99 1 H 15.3042 3.97907 14.8959
100 2 C 7.02017 12.6833 11.3494
101 2 C 6.16621 12.9999 12.5815
102 4 O 7.03765 12.8737 13.7349
103 1 H 7.80297 11.9356 11.5812
104 1 H 6.48692 12.4287 10.4774
105 1 H 7.57417 13.5998 11.1838
106 1 H 5.36836 12.2924 12.6517
107 1 H 5.73716 14.013 12.4758
108 1 H 6.42788 12.9847 14.4607
109 2 C 0.978153 0.958858 5.35358
110 2 C 1.08974 -0.140726 6.36439
111 4 O 0.670088 17.2826 5.85393
112 1 H 1.52782 0.619202 4.46167
113 1 H -0.0693127 1.17487 5.19756
114 1 H 1.55156 1.88593 5.61312
115 1 H 0.391057 -0.0712703 7.22453
116 1 H 2.13223 -0.166571 6.72914
117 1 H 0.934365 17.0793 4.97523
118 2 C 5.3061 9.63402 7.52242
119 2 C 4.44273 10.6248 8.37689
120 4 O 3.05459 10.4228 8.31771
121 1 H 5.13872 9.71725 6.45045
122 1 H 6.35526 9.96555 7.62021
123 1 H 5.15447 8.58655 7.70716
124 1 H 4.7316 11.586 7.94414
125 1 H 4.79594 10.6006 9.34819
126 1 H 2.83412 10.0572 9.16882
127 2 C 5.14764 17.3447 15.6367
128 2 C 4.88551 15.8434 15.2604
129 4 O 4.09092 15.8089 14.086
130 1 H 4.18757 17.7859 15.8153
131 1 H 5.79301 17.5514 16.4542
132 1 H 5.5487 -0.712097 14.8414
133 1 H 4.29349 15.399 16.0764
134 1 H 5.78307 15.2975 15.0811
135 1 H 3.21992 16.1852 14.2528
136 2 C 7.85459 11.5031 2.95116
137 2 C 8.65265 10.3145 3.38574
138 4 O 9.4481 10.4958 4.556
139 1 H 8.43383 12.3793 2.67237
140 1 H 7.07854 11.1762 2.26244
141 1 H 7.24735 11.8249 3.80897
142 1 H 9.32684 9.95114 2.60289
143 1 H 8.04746 9.48141 3.61443
144 1 H 9.72418 11.4276 4.46225
145 2 C 8.61472 15.1278 3.81933
146 2 C 9.86305 14.2722 3.64365
147 4 O 10.0165 13.1328 4.5388
148 1 H 8.88724 16.0017 3.2962
149 1 H 7.70551 14.6847 3.47827
150 1 H 8.34048 15.3413 4.86614
151 1 H 10.7205 15.0017 3.75318
152 1 H 9.88313 14.0162 2.60065
153 1 H 10.9783 12.9936 4.54217
154 2 C 14.0279 -0.585824 13.1885
155 2 C 15.1867 0.383491 12.939
156 4 O 16.3452 -0.271387 12.411
157 1 H 14.4296 17.1795 13.7145
158 1 H 13.2326 -0.152571 13.7998
159 1 H 13.5213 17.716 12.268
160 1 H 15.4112 0.906313 13.8463
161 1 H 14.864 1.12814 12.2349
162 1 H 17.0364 0.339216 12.1326
163 2 C 16.5826 9.10235 3.63651
164 2 C 15.8289 10.1363 4.4407
165 4 O 15.1791 9.47013 5.52774
166 1 H 15.9049 8.59175 2.96635
167 1 H 17.4476 9.49681 3.12284
168 1 H 16.9229 8.39552 4.38024
169 1 H 15.0805 10.6545 3.83822
170 1 H 16.5039 10.8762 4.84019
171 1 H 14.4647 9.98711 5.90072
172 2 C 13.9775 11.7266 17.5508
173 2 C 15.3862 12.1523 17.128
174 4 O 15.9792 13.1019 -0.573821
175 1 H 14.2541 11.0192 -0.274526
176 1 H 13.3908 12.4845 -0.6396
177 1 H 13.4351 11.1411 16.801
178 1 H 15.2929 12.5768 16.1306
179 1 H 16.085 11.2857 17.1566
180 1 H 15.4287 13.8401 -0.247887
181 2 C 14.8518 2.19357 3.83408
182 2 C 14.7692 2.9622 5.09297
183 4 O 15.199 4.26669 4.76615
184 1 H 14.4811 2.76517 2.97573
185 1 H 15.921 1.99977 3.56557
186 1 H 14.3011 1.27209 3.70335
187 1 H 15.5118 2.48017 5.80283
188 1 H 13.7782 2.87048 5.56906
189 1 H 15.1872 4.89992 5.52228
190 2 C 4.41844 16.5816 10.1013
191 2 C 5.27308 -0.846567 10.2346
192 4 O 5.42288 -0.293494 8.95395
193 1 H 4.83274 15.9192 9.33606
194 1 H 4.2819 16.0771 11.0603
195 1 H 3.44456 16.9108 9.78379
196 1 H 6.20658 17.526 10.7414
197 1 H 4.76935 -0.0333783 10.8373
198 1 H 6.0658 0.432067 8.98209
199 2 C 8.75284 17.7165 12.6233
200 2 C 7.89794 16.4422 12.786
201 4 O 8.54763 15.4364 13.5386
202 1 H 8.49484 -0.456673 11.684
203 1 H 8.50433 -0.273749 13.4345
204 1 H 9.80103 17.4781 12.5835
205 1 H 7.53654 16.0075 11.8829
206 1 H 6.98346 16.6656 13.3537
207 1 H 8.12613 14.5757 13.4678
208 2 C 2.91437 11.2774 4.88282
209 2 C 4.04928 11.0755 3.89961
210 4 O 3.91211 11.9115 2.7387
211 1 H 2.8611 12.3543 5.08589
212 1 H 1.95651 10.9839 4.46416
213 1 H 3.04075 10.8052 5.86463
214 1 H 3.98405 9.99107 3.70178
215 1 H 5.03634 11.3697 4.39562
216 1 H 4.62736 11.6688 2.13795
217 2 C 0.962412 10.0869 -0.397236
218 2 C 0.912608 10.1273 16.7271
219 4 O -0.289219 9.46371 16.1986
220 1 H 0.139245 10.7278 0.0209656
221 1 H 0.85512 9.0608 0.0483081
222 1 H 1.87702 10.6142 -0.0363671
223 1 H 1.70291 9.5126 16.3174
224 1 H 0.84588 11.1102 16.3575
225 1 H -0.798553 10.2007 15.8883
226 2 C 12.3729 4.99145 8.42912
227 2 C 12.701 5.70605 7.09009
228 4 O 14.1515 5.87799 6.98552
229 1 H 12.5456 5.76792 9.22136
230 1 H 11.3733 4.62664 8.32074
231 1 H 13.0169 4.16509 8.54779
232 1 H 12.2316 6.67749 6.96619
233 1 H 12.4906 5.0413 6.26161
234 1 H 14.3549 6.6623 6.44925
235 2 C 17.0228 17.3516 3.81423
236 2 C 17.225 17.4524 2.26162
237 4 O 17.4237 0.0467149 1.69248
238 1 H 17.5495 -0.585221 4.38583
239 1 H 15.9299 17.3117 3.96182
240 1 H 17.2807 16.388 4.14709
241 1 H 16.4393 16.8487 1.7995
242 1 H -0.478997 16.9504 1.94464
243 1 H 17.0055 4.43309 4.97987
244 2 C 14.4989 13.4786 3.46851
245 2 C 13.4302 13.0398 2.45188
246 4 O 12.6479 11.9752 3.10312
247 1 H 14.9543 12.4506 3.74088
248 1 H 15.123 14.1177 3.01782
249 1 H 14.0529 13.7345 4.51993
250 1 H 14.2093 12.5814 1.80357
251 1 H 12.7204 13.8172 2.04112
252 1 H 11.8734 11.8428 2.516
253 2 C 1.59991 4.64961 14.9123
254 2 C 1.05824 6.09662 14.9437
255 4 O 1.32145 6.78008 16.1678
256 1 H 1.24345 4.32684 13.9293
257 1 H 2.66204 4.53429 14.9375
258 1 H 1.1199 4.08672 15.6711
259 1 H -0.0458692 6.11641 14.7717
260 1 H 1.48607 6.63482 14.0865
261 1 H 0.699695 7.51446 16.2384
262 2 C 1.73315 -0.250652 7.425e-05
263 2 C 2.39055 -0.257532 1.36061
264 4 O 1.80962 17.4498 2.27653
265 1 H 1.67647 17.3721 -0.392144
266 1 H 0.757627 0.279411 0.123773
267 1 H 2.34955 0.254508 -0.756167
268 1 H 2.33544 0.723094 1.84877
269 1 H 3.44866 -0.499107 1.16934
270 1 H 2.16705 16.5893 2.01331
271 2 C 14.7404 -0.183855 17.4347
272 2 C 14.4157 0.194333 0.231987
273 4 O 14.7151 1.61638 0.642482
274 1 H 15.7859 0.0230113 17.2551
275 1 H 14.4418 17.3754 17.2917
276 1 H 14.0758 0.378185 16.7692
277 1 H 15.0983 -0.385459 0.832108
278 1 H 13.3547 0.0698902 0.541077
279 1 H 15.2636 1.97424 -0.0320887
280 2 C 8.99473 0.833938 8.32381
281 2 C 8.5247 2.10075 8.9553
282 4 O 7.204 1.89966 9.40517
283 1 H 8.44398 0.717298 7.37502
284 1 H 10.0336 1.00905 8.00897
285 1 H 9.01072 -0.106516 8.86752
286 1 H 8.53642 2.92632 8.27409
287 1 H 9.1649 2.31696 9.84452
288 1 H 6.803 2.76494 9.45702
289 2 C 8.29916 5.78594 10.3753
290 2 C 7.65806 5.56288 9.05333
291 4 O 6.7517 4.49191 9.00502
292 1 H 8.79363 4.86196 10.7008
293 1 H 9.05346 6.60032 10.3243
294 1 H 7.51548 6.1352 11.1101
295 1 H 8.39213 5.23277 8.34043
296 1 H 7.22973 6.52147 8.63129
297 1 H 6.02057 4.74613 9.53868
298 2 C 15.2932 12.6266 7.87495
299 2 C 14.4246 11.4672 8.37825
300 4 O 13.7221 10.8275 7.29241
301 1 H 16.1045 12.8953 8.52711
302 1 H 15.7375 12.522 6.91898
303 1 H 14.6879 13.5537 7.82593
304 1 H 13.7466 11.8781 9.1521
305 1 H 15.0594 10.7231 8.85
306 1 H 12.8298 11.2225 7.30294
307 2 C 14.7243 8.35562 17.1778
308 2 C 14.886 8.77064 15.72
309 4 O 15.8996 8.16998 14.8997
310 1 H 15.445 8.73093 -0.743858
311 1 H 13.7155 8.54204 17.5868
312 1 H 14.8399 7.29136 17.2854
313 1 H 14.9678 9.85939 15.5709
314 1 H 14.0156 8.36178 15.2094
315 1 H 16.7735 8.50287 15.1762
316 2 C 0.363876 14.4707 8.01437
317 2 C 1.57781 14.2662 7.14925
318 4 O 2.56473 15.3212 7.47107
319 1 H -0.0451222 15.439 7.82344
320 1 H -0.372301 13.6747 7.90261
321 1 H 0.701119 14.4956 9.0794
322 1 H 1.25309 14.3478 6.04919
323 1 H 2.06627 13.2871 7.27304
324 1 H 2.08581 16.125 7.18855
325 2 C 15.2044 1.37416 9.44614
326 2 C 15.9779 0.39336 8.57713
327 4 O 16.7097 -0.507388 9.44824
328 1 H 15.8006 1.8961 10.158
329 1 H 14.5555 2.12146 8.94022
330 1 H 14.503 0.74886 10.0582
331 1 H 16.7331 0.808594 7.92417
332 1 H 15.3614 -0.167263 7.93573
333 1 H 16.288 -0.57229 10.3416
334 2 C 2.32414 1.16229 10.5328
335 2 C 1.07534 1.05724 11.4
336 4 O -0.0496691 1.45297 10.6855
337 1 H 3.2468 0.890864 10.9755
338 1 H 2.13636 0.548922 9.67295
339 1 H 2.40868 2.17139 10.1716
340 1 H 1.23691 1.77236 12.2627
341 1 H 0.946635 0.0427816 11.7753
342 1 H -0.467337 0.689688 10.2013
343 2 C 7.29905 14.6479 -0.712802
344 2 C 8.70281 14.4027 17.4153
345 4 O 9.5112 13.8671 -0.117765
346 1 H 6.72191 15.1018 17.1712
347 1 H 6.80785 13.6939 -0.364117
348 1 H 7.18661 15.394 0.135487
349 1 H 9.22394 15.3087 17.1051
350 1 H 8.69472 13.7086 16.5897
351 1 H 9.06107 13.1314 0.282306
352 2 C 5.69643 3.85369 13.8254
353 2 C 5.52757 3.56789 12.3248
354 4 O 5.10829 4.76945 11.5655
355 1 H 4.88117 4.47863 14.2104
356 1 H 5.82904 2.94955 14.4049
357 1 H 6.59089 4.42796 13.9748
358 1 H 4.7291 2.8809 12.0655
359 1 H 6.42506 3.19726 11.9191
360 1 H 4.47932 5.22626 12.1158
361 2 C 11.4443 14.5665 10.1696
362 2 C 10.9401 14.6457 11.62
363 4 O 11.7998 15.5941 12.2606
364 1 H 12.5279 14.5875 10.0911
365 1 H 11.1364 13.5774 9.8501
366 1 H 11.022 15.332 9.47572
367 1 H 11.0082 13.6924 12.1245
368 1 H 9.89572 14.9771 11.6784
369 1 H 11.5843 15.6564 13.2001
370 2 C 12.5657 9.08619 12.7541
371 2 C 11.3273 8.95448 11.8956
372 4 O 10.4529 10.1121 12.088
373 1 H 13.2229 8.23462 12.6655
374 1 H 13.1719 9.96482 12.4872
375 1 H 12.3357 9.12363 13.8354
376 1 H 10.7631 8.07481 12.1504
377 1 H 11.5473 8.87185 10.8465
378 1 H 11.0571 10.8548 12.0571
379 2 C 1.6978 7.29141 4.19868
380 2 C 0.978689 6.69434 2.94538
381 4 O -0.424126 6.41423 3.23838
382 1 H 1.68945 8.38539 4.25274
383 1 H 1.3631 6.76017 5.07972
384 1 H 2.72664 6.98585 4.19651
385 1 H 1.47554 5.80426 2.64953
386 1 H 1.01537 7.42337 2.11632
387 1 H 17.6689 5.98899 2.53555
388 2 C 15.2618 14.6928 11.1658
389 2 C 15.1089 13.2734 11.5989
390 4 O 13.6882 12.7514 11.7949
391 1 H 16.2826 14.9885 11.0116
392 1 H 14.7671 14.7876 10.1947
393 1 H 14.8261 15.4488 11.842
394 1 H 15.4909 13.0989 12.5953
395 1 H 15.6609 12.5803 10.9494
396 1 H 13.1237 13.0717 11.0504
397 2 C 0.780449 10.9893 12.5141
398 2 C 2.07293 11.0595 11.7574
399 4 O 2.34567 9.90248 10.9787
400 1 H 0.662143 10.2219 13.3
401 1 H 0.687046 11.9917 12.9555
402 1 H -0.0773941 10.7504 11.8661
403 1 H 2.90693 11.2672 12.4294
404 1 H 2.0442 11.8996 11.0348
405 1 H 2.67363 9.19162 11.5539
406 2 C 6.56597 5.6104 16.5593
407 2 C 5.60454 6.70297 16.7962
408 4 O 4.47887 6.60369 15.8366
409 1 H 6.05236 4.63957 16.725
410 1 H 7.01843 5.73641 15.5932
411 1 H 7.37703 5.63175 17.3276
412 1 H 6.15267 7.60037 16.5846
413 1 H 5.15552 6.7318 -0.83337
414 1 H 3.85729 7.34484 15.9126
415 2 C 8.4165 6.41237 5.58207
416 2 C 9.08223 7.53113 6.34241
417 4 O 10.3879 7.82781 5.84015
418 1 H 7.59403 6.00715 6.14195
419 1 H 8.01066 6.8972 4.67699
420 1 H 9.10345 5.6231 5.25452
421 1 H 9.25311 7.18419 7.37017
422 1 H 8.40505 8.38208 6.34115
423 1 H 10.2825 8.5015 5.13307
424 2 C 4.33998 16.0985 3.83522
425 2 C 3.26134 15.0754 3.76579
426 4 O 3.03466 14.839 2.3571
427 1 H 3.9765 17.1672 3.85329
428 1 H 5.09405 15.9496 4.67316
429 1 H 4.9153 16.0663 2.92907
430 1 H 2.32899 15.3572 4.17144
431 1 H 3.59453 14.1953 4.20435
432 1 H 2.36714 14.1134 2.31996
433 2 C 17.43 4.60019 7.81452
434 2 C -0.357663 4.59199 6.56539
435 4 O 17.5923 5.0366 5.41042
436 1 H -0.571111 4.4535 8.7127
437 1 H 17.0395 5.61792 7.77305
438 1 H 16.5208 3.99457 7.86121
439 1 H 0.137919 3.63358 6.26407
440 1 H 0.531313 5.21791 6.66124
441 1 H -0.750187 5.81636 4.91624
442 2 C 17.6107 3.9959 17.331
443 2 C 17.6428 2.52916 17.0231
444 4 O 16.3065 2.00288 16.8824
445 1 H 16.7416 4.2021 -0.624945
446 1 H -0.118011 4.3594 17.8285
447 1 H 17.4845 4.5574 16.3806
448 1 H -0.425018 1.9953 -0.839933
449 1 H -0.49244 2.35125 16.0308
450 1 H 15.8517 2.41181 16.1068
ITEM: TIMESTEP
8000
ITEM: NUMBER OF ATOMS
450
ITEM: BOX BOUNDS pp pp pp
-8.3749580824891012e-01 1.7762495808248978e+01
-8.3749580824891012e-01 1.7762495808248978e+01
-8.3749580824891012e-01 1.7762495808248978e+01
ITEM: ATOMS id type element x y z
1 2 C 12.9551 17.3733 5.21517
2 2 C 12.4991 16.9391 6.64174
3 4 O 12.6292 -0.502707 7.42871
4 1 H 14.0046 17.5633 5.13644
5 1 H 12.7639 16.4882 4.56805
6 1 H 12.348 -0.368364 4.93204
7 1 H 12.9905 16.076 7.09336
8 1 H 11.4222 16.6981 6.49973
9 1 H 13.4534 -0.534613 7.92517
10 2 C 11.5682 13.9226 15.3221
11 2 C 12.9713 14.1838 14.7325
12 4 O 13.6823 12.9933 14.5439
13 1 H 10.9408 13.2685 14.7561
14 1 H 11.6919 13.2977 16.1987
15 1 H 11.0997 14.8594 15.611
16 1 H 13.5501 14.7772 15.4375
17 1 H 12.8832 14.7246 13.8103
18 1 H 13.3387 12.5322 13.7804
19 2 C 14.3382 5.25316 0.973472
20 2 C 15.6729 5.75942 1.58423
21 4 O 16.5367 4.74181 1.85098
22 1 H 14.1653 4.21739 1.27456
23 1 H 13.4456 5.84197 1.2074
24 1 H 14.4632 5.23132 -0.149638
25 1 H 15.5011 6.40181 2.45417
26 1 H 16.1084 6.42159 0.846666
27 1 H 16.2933 4.23017 2.64009
28 2 C 17.7527 9.89104 8.96604
29 2 C -0.153358 11.1451 8.41477
30 4 O 0.547115 10.9191 7.22188
31 1 H -0.107147 9.11715 9.16459
32 1 H 17.2402 10.107 9.91968
33 1 H 17.0284 9.54228 8.26571
34 1 H 0.422632 11.6998 9.15487
35 1 H 17.6172 11.8171 8.05285
36 1 H 1.33288 10.4018 7.44075
37 2 C 17.7203 17.6309 16.2245
38 2 C 0.298304 17.4929 15.3336
39 4 O 1.17728 16.6485 15.3829
40 1 H 17.5198 16.7232 16.7791
41 1 H 17.8074 -0.0920825 16.8335
42 1 H 16.7953 17.9354 15.7171
43 1 H 0.37106 -0.284999 14.5681
44 1 H 16.7295 0.75045 1.87768
45 1 H 6.62892 2.32025 7.47174
46 2 C 6.21739 14.6882 7.41964
47 2 C 7.50618 13.8726 7.60451
48 4 O 7.50177 12.838 6.61014
49 1 H 5.35046 14.1745 7.84397
50 1 H 6.2481 15.6388 7.96367
51 1 H 6.05514 14.7768 6.35714
52 1 H 7.65139 13.358 8.54001
53 1 H 8.38721 14.4867 7.47695
54 1 H 8.31304 13.0214 6.12317
55 2 C 17.4896 4.61704 12.0932
56 2 C 16.195 5.10247 12.7381
57 4 O 16.5121 5.41621 14.2053
58 1 H -0.896436 3.68232 12.5799
59 1 H 17.305 4.15765 11.0594
60 1 H -0.298253 5.28424 12.2588
61 1 H 15.4823 4.28141 12.6129
62 1 H 15.6777 5.93477 12.2702
63 1 H 16.4485 6.36847 14.285
64 2 C 10.0324 10.8134 8.41735
65 2 C 8.74699 10.9219 9.24528
66 4 O 8.50382 9.8797 10.1466
67 1 H 9.88018 9.9895 7.68699
68 1 H 10.2678 11.7235 7.85074
69 1 H 10.8865 10.5411 9.01278
70 1 H 7.91533 10.9388 8.57803
71 1 H 8.7702 11.8647 9.78967
72 1 H 9.07094 10.011 10.8998
73 2 C 4.77196 1.26743 5.38809
74 2 C 4.3972 2.72102 5.63402
75 4 O 3.79028 3.08431 6.9297
76 1 H 5.84822 1.1781 5.32881
77 1 H 4.45665 0.602245 6.18405
78 1 H 4.39596 0.923896 4.41185
79 1 H 3.62658 3.04153 4.94667
80 1 H 5.3203 3.31288 5.51485
81 1 H 4.48511 2.98259 7.58232
82 2 C 6.26628 8.65546 12.9534
83 2 C 5.20284 8.27135 11.9765
84 4 O 3.94164 7.9979 12.6477
85 1 H 6.48298 7.76097 13.5974
86 1 H 7.23369 8.89259 12.388
87 1 H 5.91809 9.5247 13.5703
88 1 H 5.49992 7.35717 11.5486
89 1 H 5.16517 9.02141 11.1503
90 1 H 4.15494 7.32824 13.304
91 2 C 12.9126 4.65095 14.6119
92 2 C 13.4266 3.39833 15.4952
93 4 O 14.9231 3.46957 15.3445
94 1 H 11.7839 4.63199 14.5672
95 1 H 13.2091 5.657 15.0419
96 1 H 13.3188 4.47915 13.5672
97 1 H 13.0496 2.45058 15.1124
98 1 H 13.1538 3.59663 16.5196
99 1 H 15.1629 4.31909 15.0425
100 2 C 6.78523 12.5336 11.3276
101 2 C 6.13498 12.8335 12.6357
102 4 O 6.99417 12.5379 13.7519
103 1 H 6.77584 11.5035 10.9849
104 1 H 6.21833 13.1541 10.5963
105 1 H 7.78573 12.9743 11.3533
106 1 H 5.1942 12.2637 12.726
107 1 H 5.88185 13.8991 12.617
108 1 H 6.45352 12.3427 14.4962
109 2 C 0.92262 1.00498 5.22225
110 2 C 1.24299 -0.134576 6.24727
111 4 O 0.717832 17.2225 5.72039
112 1 H 1.33794 1.00402 4.24934
113 1 H -0.141254 1.14897 5.29731
114 1 H 1.32469 1.8975 5.71702
115 1 H 0.803864 0.111399 7.20458
116 1 H 2.31232 -0.219326 6.34541
117 1 H 1.05455 17.2176 4.78418
118 2 C 5.18762 9.18545 7.51243
119 2 C 4.59131 10.4714 8.02107
120 4 O 3.23405 10.3062 8.49385
121 1 H 4.79997 8.93718 6.51526
122 1 H 6.27858 9.22588 7.5284
123 1 H 4.7959 8.36336 8.0994
124 1 H 4.68229 11.2499 7.23954
125 1 H 5.27254 10.7924 8.8906
126 1 H 3.20387 9.95092 9.41445
127 2 C 5.16129 17.2351 15.8169
128 2 C 4.90655 15.9655 15.1282
129 4 O 3.81724 16.0145 14.2361
130 1 H 4.28708 17.8003 16.1808
131 1 H 5.89563 17.1008 16.672
132 1 H 5.70725 -0.645075 15.1839
133 1 H 4.7156 15.1818 15.8608
134 1 H 5.80703 15.7056 14.571
135 1 H 2.96878 15.9377 14.6677
136 2 C 7.91257 11.3916 2.82641
137 2 C 8.68042 10.1567 3.17165
138 4 O 9.43625 10.3026 4.34057
139 1 H 8.57946 12.1576 2.40653
140 1 H 7.17976 11.1507 2.07505
141 1 H 7.36872 11.8254 3.65599
142 1 H 9.32539 9.86549 2.33935
143 1 H 8.0814 9.22097 3.4035
144 1 H 9.39085 11.2325 4.5754
145 2 C 9.0196 14.9605 3.81887
146 2 C 10.1882 14.0338 3.84913
147 4 O 10.1334 13.1782 4.9609
148 1 H 9.31435 15.9437 3.34815
149 1 H 8.10273 14.6 3.32412
150 1 H 8.67644 15.0767 4.8482
151 1 H 11.1073 14.6122 3.86404
152 1 H 10.2346 13.4471 2.92722
153 1 H 10.9113 12.5968 4.89414
154 2 C 13.8985 -0.597865 13.0789
155 2 C 15.0498 0.326224 13.0804
156 4 O 15.9704 -0.159433 12.1017
157 1 H 14.1942 17.0372 13.5151
158 1 H 13.0315 -0.250152 13.6062
159 1 H 13.6358 -0.856988 12.0511
160 1 H 15.5333 0.364728 14.0869
161 1 H 14.6975 1.33997 12.7895
162 1 H 16.6593 0.464071 11.871
163 2 C 16.5781 9.48942 3.43176
164 2 C 15.6354 10.1263 4.48403
165 4 O 15.2082 9.12051 5.3846
166 1 H 15.985 8.76165 2.82551
167 1 H 16.8688 10.2758 2.72254
168 1 H 17.4265 8.91588 3.81734
169 1 H 14.8073 10.633 3.96681
170 1 H 16.1348 10.9446 5.05591
171 1 H 14.4624 9.37262 5.94271
172 2 C 13.936 12.0465 17.5603
173 2 C 15.4479 12.2831 17.0367
174 4 O 16.0796 13.2958 -0.795529
175 1 H 13.8075 11.6363 -0.0627145
176 1 H 13.4565 13.0189 17.4264
177 1 H 13.4746 11.3415 16.8789
178 1 H 15.2985 12.4762 15.9541
179 1 H 16.099 11.4063 17.0927
180 1 H 16.5927 12.909 -0.0940814
181 2 C 14.4314 1.9673 4.29888
182 2 C 14.3826 3.1171 5.28729
183 4 O 14.667 4.38415 4.66347
184 1 H 13.483 1.73481 3.81846
185 1 H 14.9743 2.1336 3.39686
186 1 H 14.8085 1.07428 4.75381
187 1 H 14.9537 2.94199 6.17684
188 1 H 13.3843 3.09988 5.71231
189 1 H 14.5178 5.11009 5.27705
190 2 C 4.43518 16.5277 10.4649
191 2 C 5.22742 -0.674057 10.4082
192 4 O 5.18734 -0.099507 9.12072
193 1 H 4.97271 15.7574 9.92668
194 1 H 4.26321 16.2767 11.4954
195 1 H 3.4515 16.6754 10.0228
196 1 H 6.24384 -0.932412 10.7789
197 1 H 4.76726 0.0187651 11.0627
198 1 H 5.90617 0.555283 9.10887
199 2 C 8.84284 17.5111 12.4543
200 2 C 7.88071 16.3808 12.8144
201 4 O 8.51761 15.4375 13.752
202 1 H 8.20766 -0.188626 12.41
203 1 H 9.61535 17.5761 13.2806
204 1 H 9.41387 17.3609 11.5261
205 1 H 7.57938 15.8734 11.8559
206 1 H 6.93122 16.7687 13.2216
207 1 H 8.07728 14.5871 13.714
208 2 C 2.97613 11.3626 4.81515
209 2 C 4.32668 11.287 4.10814
210 4 O 4.13824 11.9658 2.86759
211 1 H 2.82533 12.3755 5.18095
212 1 H 2.16251 11.1643 4.14186
213 1 H 2.944 10.7531 5.71069
214 1 H 4.62612 10.2565 4.04193
215 1 H 5.05754 11.8134 4.65914
216 1 H 4.97518 11.9965 2.38598
217 2 C 1.04001 10.0815 -0.510997
218 2 C 0.987558 10.2338 16.5714
219 4 O -0.370348 10.027 16.0743
220 1 H 0.430007 10.8364 -0.0600153
221 1 H 0.655691 9.1055 -0.223
222 1 H 2.00831 10.3013 -0.18869
223 1 H 1.5346 9.42239 16.0776
224 1 H 1.38303 11.1897 16.145
225 1 H -0.712711 10.8727 15.8482
226 2 C 12.2419 5.17318 8.28649
227 2 C 12.7118 5.90808 7.09989
228 4 O 14.1208 5.99311 7.14925
229 1 H 12.6083 5.56105 9.24425
230 1 H 11.1374 5.21456 8.19383
231 1 H 12.5982 4.1559 8.06147
232 1 H 12.3029 6.91188 7.02444
233 1 H 12.435 5.39176 6.18019
234 1 H 14.3698 6.88361 7.39108
235 2 C 16.5994 17.3605 3.4392
236 2 C 17.2602 17.5022 2.0778
237 4 O 17.5855 0.327502 1.88119
238 1 H 17.2971 -0.722496 4.1759
239 1 H 15.6795 -0.619018 3.37976
240 1 H 16.3963 16.3174 3.80914
241 1 H 16.6625 16.9877 1.27455
242 1 H -0.345517 16.9962 2.09067
243 1 H 16.5806 4.68669 5.38192
244 2 C 14.5248 13.4135 3.62176
245 2 C 13.5292 12.9727 2.53914
246 4 O 12.5162 12.1858 3.14937
247 1 H 15.3328 12.8164 3.97445
248 1 H 14.7856 14.4745 3.23815
249 1 H 13.9716 13.4192 4.48004
250 1 H 14.1847 12.555 1.76701
251 1 H 13.2117 13.8108 1.94907
252 1 H 12.2849 11.3796 2.68489
253 2 C 1.83903 4.77606 14.8521
254 2 C 0.993637 6.02867 14.7192
255 4 O 1.17386 6.75591 16.0239
256 1 H 1.69686 4.07241 13.9988
257 1 H 2.8685 5.10353 14.794
258 1 H 1.63505 4.2671 15.8042
259 1 H -0.0744464 5.99387 14.4998
260 1 H 1.48395 6.64409 13.9585
261 1 H 0.529096 7.45942 16.02
262 2 C 1.63889 -0.346689 -0.0396005
263 2 C 2.27319 -0.284136 1.35424
264 4 O 1.5802 17.4921 2.27823
265 1 H 1.89248 17.4238 -0.688718
266 1 H 0.559012 -0.35439 0.145744
267 1 H 1.96356 0.539154 -0.578798
268 1 H 2.192 0.712693 1.77361
269 1 H 3.33486 -0.50344 1.31766
270 1 H 1.80758 16.571 2.0873
271 2 C 14.1833 -0.287539 17.478
272 2 C 14.0446 0.36871 0.27621
273 4 O 14.7055 1.55046 0.486132
274 1 H 15.1807 -0.687166 17.2547
275 1 H 13.4127 17.551 17.405
276 1 H 14.0006 0.419479 16.6811
277 1 H 14.4007 -0.352887 1.0268
278 1 H 13.0124 0.539072 0.584423
279 1 H 15.4585 1.7819 -0.117362
280 2 C 8.96652 0.655558 8.18249
281 2 C 8.59115 1.76172 9.2205
282 4 O 7.18227 1.85139 9.50091
283 1 H 8.54569 0.807961 7.20173
284 1 H 10.0249 0.530934 7.97983
285 1 H 8.63772 -0.319962 8.56497
286 1 H 8.77999 2.74989 8.80841
287 1 H 9.11349 1.5728 10.1386
288 1 H 6.90583 2.76381 9.30122
289 2 C 8.28331 5.64438 10.4652
290 2 C 7.70915 5.42194 9.09618
291 4 O 6.48136 4.68508 9.10951
292 1 H 8.54137 4.67597 10.8462
293 1 H 9.11149 6.3079 10.4187
294 1 H 7.60204 6.1419 11.1131
295 1 H 8.41202 4.83683 8.45612
296 1 H 7.6363 6.30831 8.54897
297 1 H 6.05828 4.85774 10.0038
298 2 C 15.1049 12.5694 7.99576
299 2 C 14.4748 11.272 8.37525
300 4 O 13.7218 10.7412 7.27285
301 1 H 15.5439 13.0847 8.8484
302 1 H 15.8595 12.5175 7.18015
303 1 H 14.385 13.2893 7.58578
304 1 H 13.9245 11.4403 9.291
305 1 H 15.2378 10.6076 8.67899
306 1 H 13.6148 11.4717 6.65426
307 2 C 15.1589 8.29799 16.9569
308 2 C 15.0316 8.80913 15.5666
309 4 O 16.1533 8.23819 14.8852
310 1 H 16.1874 8.23933 17.2809
311 1 H 14.54 8.79529 17.7191
312 1 H 14.7976 7.24045 16.9854
313 1 H 15.0074 9.86516 15.3944
314 1 H 14.126 8.39653 15.0849
315 1 H 16.9333 8.76481 15.1498
316 2 C 0.458371 14.7077 8.0587
317 2 C 1.69313 14.4845 7.22856
318 4 O 2.70369 15.4794 7.28017
319 1 H -0.0271883 15.6918 7.8844
320 1 H -0.21731 13.9273 7.7221
321 1 H 0.646409 14.6532 9.12392
322 1 H 1.35409 14.3908 6.25173
323 1 H 2.15924 13.5369 7.43992
324 1 H 2.29226 16.2888 7.58442
325 2 C 14.9695 1.44128 9.02922
326 2 C 15.9397 0.397928 8.50769
327 4 O 16.5223 -0.546067 9.43168
328 1 H 15.4392 2.40795 9.3022
329 1 H 14.2906 1.67722 8.2456
330 1 H 14.4003 1.11357 9.86556
331 1 H 16.7761 0.898946 7.97979
332 1 H 15.4261 -0.21915 7.70994
333 1 H 15.9829 -0.661534 10.2006
334 2 C 2.28055 1.33414 10.737
335 2 C 0.953645 1.01316 11.4539
336 4 O -0.213764 1.23457 10.6234
337 1 H 3.08555 1.46161 11.4677
338 1 H 2.60401 0.4554 10.134
339 1 H 2.24455 2.16072 10.0196
340 1 H 0.903379 1.66715 12.2945
341 1 H 0.991241 0.000896909 11.8726
342 1 H -0.572918 0.444319 10.2211
343 2 C 7.17078 14.3507 -0.670717
344 2 C 8.61063 14.3016 17.3685
345 4 O 9.57334 13.9924 -0.248949
346 1 H 6.47305 14.2979 17.0774
347 1 H 6.92856 13.5725 0.0066723
348 1 H 6.88716 15.3482 -0.199264
349 1 H 8.8925 15.3283 17.0334
350 1 H 8.6388 13.5546 16.5435
351 1 H 9.59512 13.0632 0.00379986
352 2 C 5.99209 3.58391 13.7144
353 2 C 5.23827 3.37885 12.4499
354 4 O 5.1979 4.61975 11.7382
355 1 H 5.38347 4.19386 14.4041
356 1 H 6.20312 2.63619 14.2166
357 1 H 6.93949 4.10338 13.5648
358 1 H 4.18639 3.0983 12.5831
359 1 H 5.7503 2.58768 11.8569
360 1 H 4.29188 4.88448 11.544
361 2 C 11.3702 14.4251 9.91737
362 2 C 11.1557 14.4059 11.4096
363 4 O 11.6061 15.6483 11.9736
364 1 H 12.4167 14.4995 9.66939
365 1 H 10.9137 13.5816 9.40051
366 1 H 10.9306 15.3547 9.59148
367 1 H 11.6031 13.5606 11.9622
368 1 H 10.0817 14.304 11.6376
369 1 H 11.0703 15.7837 12.766
370 2 C 12.4185 9.01282 12.6057
371 2 C 11.0601 9.03076 12.0581
372 4 O 10.4546 10.2839 12.1561
373 1 H 12.9424 8.0717 12.4068
374 1 H 12.9845 9.84334 12.1262
375 1 H 12.5179 9.24069 13.6676
376 1 H 10.3367 8.34434 12.5261
377 1 H 11.0788 8.77326 10.9676
378 1 H 11.0874 10.9795 11.9198
379 2 C 1.67357 7.64678 4.03346
380 2 C 1.11988 6.90965 2.89884
381 4 O -0.142648 6.3302 3.20266
382 1 H 1.04287 8.52429 4.34264
383 1 H 1.79776 6.98631 4.88216
384 1 H 2.62429 8.11887 3.76879
385 1 H 1.84965 6.08534 2.67927
386 1 H 1.07321 7.54486 2.03088
387 1 H -0.636288 5.97414 2.46535
388 2 C 15.2298 14.7413 11.3412
389 2 C 15.35 13.2649 11.7723
390 4 O 14.1132 12.6401 11.4829
391 1 H 16.0562 15.3423 11.6706
392 1 H 15.1269 14.859 10.2539
393 1 H 14.3357 15.1871 11.7344
394 1 H 15.5487 13.1959 12.8551
395 1 H 16.1551 12.775 11.1979
396 1 H 13.554 13.3262 11.0909
397 2 C 0.830331 10.9669 12.6472
398 2 C 2.04049 11.0882 11.6891
399 4 O 2.51951 9.85773 11.1677
400 1 H 0.942967 10.2889 13.4779
401 1 H 0.44185 11.872 13.0835
402 1 H 0.0517497 10.6032 11.9924
403 1 H 2.8604 11.7038 12.1015
404 1 H 1.74389 11.6391 10.8358
405 1 H 2.76044 9.26517 11.8831
406 2 C 6.5646 5.45547 16.7428
407 2 C 5.64151 6.7343 16.7575
408 4 O 4.54747 6.56884 15.8919
409 1 H 6.04928 4.56628 17.0107
410 1 H 6.95809 5.32051 15.71
411 1 H 7.4043 5.55613 17.4256
412 1 H 6.29256 7.51398 16.2885
413 1 H 5.37036 7.20218 17.7282
414 1 H 3.73184 6.17758 16.1717
415 2 C 8.56337 6.39817 5.59617
416 2 C 9.27611 7.55056 6.41572
417 4 O 10.4901 7.79511 5.76372
418 1 H 7.53745 6.21461 5.91791
419 1 H 8.52643 6.72874 4.5561
420 1 H 9.192 5.49774 5.7039
421 1 H 9.37 7.27197 7.45518
422 1 H 8.61412 8.43106 6.38452
423 1 H 10.4634 8.71608 5.4879
424 2 C 4.25865 16.5943 3.63296
425 2 C 3.45098 15.2854 3.66016
426 4 O 2.60333 15.0219 2.53719
427 1 H 3.68109 17.5069 3.56964
428 1 H 4.63421 16.6797 4.63746
429 1 H 5.14173 16.6722 3.03251
430 1 H 2.76521 15.3047 4.55858
431 1 H 4.21973 14.4617 3.75317
432 1 H 2.90798 14.2078 2.11164
433 2 C 17.5857 4.50473 7.82028
434 2 C -0.224859 4.65331 6.57027
435 4 O 17.567 4.88685 5.37093
436 1 H -0.677161 5.30237 8.4577
437 1 H 16.5318 4.71705 7.68488
438 1 H 17.7143 3.58049 8.39882
439 1 H 0.388251 3.82496 6.29018
440 1 H 0.400776 5.54242 6.53718
441 1 H -0.838963 5.62816 4.82775
442 2 C 17.7196 4.09178 17.6947
443 2 C 17.7458 2.67169 17.0353
444 4 O 16.4688 2.06306 17.0558
445 1 H 16.8271 4.14986 -0.284252
446 1 H -0.0516477 4.2635 -0.223131
447 1 H 17.6963 4.75145 16.8624
448 1 H -0.203032 2.05346 17.6478
449 1 H -0.560115 2.68926 16.0105
450 1 H 15.9729 2.52626 16.3977
