LAMMPS (10 Sep 2025)
  using 8 OpenMP thread(s) per MPI task
# ------------------------------------------------------------------
# LAMMPS input: NVT MD with MACE-OFF23 (medium) ML interatomic potential
# Model: MACE-OFF23_medium.model-lammps.pt
#
# EDIT THESE BEFORE RUNNING:
#   1. "data.system"      -> your actual LAMMPS data file
#   2. the element list on the pair_coeff line -> must match, in order,
#      the atom TYPES you defined in your data file (a subset of the
#      10 elements MACE-OFF23 was trained on: H C N O F P S Cl Br I)
#   3. group/region/thermodynamic settings -> your actual system
# ------------------------------------------------------------------

units           metal
boundary        p p p
atom_style      atomic
atom_modify     map yes
newton          on off          # "newton on off" = newton_pair on, newton_bond off.
                                 # pair_style mace requires newton pair ON.
                                 # KOKKOS full-neighbor-list mode requires
                                 # newton bond OFF (moot anyway: atom_style
                                 # atomic has no bonded terms).

# ---- geometry / topology ----
read_data       data.system
Reading data file ...
  orthogonal box = (0 0 0) to (16.925 16.925 16.925)
  1 by 1 by 1 MPI processor grid
  reading atoms ...
  450 atoms
  read_data CPU = 0.007 seconds

# ---- MACE pair style ----
# no_domain_decomposition: recommended for a single MPI rank + threading
# (typical for small-to-medium systems). Drop it if you are running
# genuine multi-rank domain decomposition on a large system.
pair_style      mace no_domain_decomposition
pair_coeff      * * MACE-OFF23_medium.model-lammps.pt H C N O

# ---- neighbor settings ----
neighbor        2.0 bin
neigh_modify    every 1 delay 0 check yes

# ---- timestep ----
# MACE-OFF23 is an all-electron organic-chemistry potential with
# explicit H; use a conservative fs-scale timestep.
timestep        0.0005          # 0.5 fs

# ---- common variables ----
variable        Tinit  equal 300.0
variable        Trun   equal 300.0
variable        Patm   equal 1.01325     # 1 atm in bar (metal units use bar)

thermo_style    custom step temp pe ke etotal press vol density
thermo          10

# ------------------------------------------------------------------
# Stage 0: energy minimization
# The packmol-packed box was placed with a finite distance tolerance,
# not energy-minimized, so there can be close contacts / large initial
# forces. Minimize before assigning velocities or running dynamics.
# ------------------------------------------------------------------
min_style       cg
minimize        1.0e-6 1.0e-8 1000 10000
Generated 0 of 6 mixed pair_coeff terms from geometric mixing rule
Neighbor list info ...
  update: every = 1 steps, delay = 0 steps, check = yes
  max neighbors/atom: 2000, page size: 100000
  master list distance cutoff = 12
  ghost atom cutoff = 12
  binsize = 6, bins = 3 3 3
  1 neighbor lists, perpetual/occasional/extra = 1 0 0
  (1) pair mace, perpetual
      attributes: full, newton on
      pair build: full/bin/atomonly
      stencil: full/bin/3d
      bin: standard
Per MPI rank memory allocation (min/avg/max) = 11.85 | 11.85 | 11.85 Mbytes
   Step          Temp          PotEng         KinEng         TotEng         Press          Volume        Density    
         0   0              4131202        0              4131202        9.0222892e+08  4848.2615      0.78893608   
        10   0             -211025.94      0             -211025.94      39336.066      4848.2615      0.78893608   
        13   0             -211028.24      0             -211028.24      44256.404      4848.2615      0.78893608   
Loop time of 12.8306 on 8 procs for 13 steps with 450 atoms

135.9% CPU use with 1 MPI tasks x 8 OpenMP threads

Minimization stats:
  Stopping criterion = energy tolerance
  Energy initial, next-to-last, final = 
      4131202.01730513  -211028.176952283  -211028.244470991
  Force two-norm initial, final = 1.8331115e+08 42.367849
  Force max component initial, final = 1.1869868e+08 17.196567
  Final line search alpha, max atom move = 0.00023013401 0.0039575147
  Iterations, force evaluations = 13 36

MPI task timing breakdown:
Section |  min time  |  avg time  |  max time  |%varavg| %total
---------------------------------------------------------------
Pair    | 12.829     | 12.829     | 12.829     |   0.0 | 99.99
Neigh   | 0          | 0          | 0          |   0.0 |  0.00
Comm    | 0.0012092  | 0.0012092  | 0.0012092  |   0.0 |  0.01
Output  | 3.9079e-05 | 3.9079e-05 | 3.9079e-05 |   0.0 |  0.00
Modify  | 0          | 0          | 0          |   0.0 |  0.00
Other   |            | 0.0006633  |            |       |  0.01

Nlocal:            450 ave         450 max         450 min
Histogram: 1 0 0 0 0 0 0 0 0 0
Nghost:           6300 ave        6300 max        6300 min
Histogram: 1 0 0 0 0 0 0 0 0 0
Neighs:              0 ave           0 max           0 min
Histogram: 1 0 0 0 0 0 0 0 0 0
FullNghs:       301172 ave      301172 max      301172 min
Histogram: 1 0 0 0 0 0 0 0 0 0

Total # of neighbors = 301172
Ave neighs/atom = 669.27111
Neighbor list builds = 0
Dangerous builds = 0

reset_timestep  0

# ---- initial velocities (after minimization) ----
velocity        all create ${Tinit} 12345 mom yes rot yes dist gaussian
velocity        all create 300 12345 mom yes rot yes dist gaussian

# ------------------------------------------------------------------
# Stage 1: short NVT relaxation at fixed volume
# Lets local structure (bond lengths, close contacts) relax under
# real dynamics before the box is allowed to change size.
# ------------------------------------------------------------------
fix             1 all nvt temp ${Tinit} ${Trun} $(100.0*dt)
fix             1 all nvt temp 300 ${Trun} $(100.0*dt)
fix             1 all nvt temp 300 300 $(100.0*dt)
fix             1 all nvt temp 300 300 0.050000000000000002776
run             2000                     # 1 ps
Generated 0 of 6 mixed pair_coeff terms from geometric mixing rule
Per MPI rank memory allocation (min/avg/max) = 10.73 | 10.73 | 10.73 Mbytes
   Step          Temp          PotEng         KinEng         TotEng         Press          Volume        Density    
         0   300           -211028.24      17.411342     -211010.83      48092.287      4848.2615      0.78893608   
        10   519.19814     -211041.08      30.13312      -211010.95      36379.096      4848.2615      0.78893608   
        20   642.20079     -211048.67      37.271924     -211011.4       29285.349      4848.2615      0.78893608   
        30   681.65101     -211052.26      39.561528     -211012.7       19525.721      4848.2615      0.78893608   
        40   657.84431     -211052.44      38.17984      -211014.26      17257.812      4848.2615      0.78893608   
        50   719.11602     -211057.52      41.735915     -211015.78      13064.683      4848.2615      0.78893608   
        60   684.73483     -211057.11      39.740507     -211017.37      18691.119      4848.2615      0.78893608   
        70   722.97091     -211061.25      41.959645     -211019.29      18116.947      4848.2615      0.78893608   
        80   631.90999     -211057.96      36.674669     -211021.28      17613.862      4848.2615      0.78893608   
        90   638.83234     -211060.24      37.076427     -211023.16      15758.441      4848.2615      0.78893608   
       100   564.76472     -211057.72      32.777705     -211024.95      13220.094      4848.2615      0.78893608   
       110   574.22683     -211059.9       33.326865     -211026.57      15269.262      4848.2615      0.78893608   
       120   558.43019     -211060.61      32.410062     -211028.2       10153.261      4848.2615      0.78893608   
       130   544.72431     -211061.33      31.614603     -211029.72      11993.798      4848.2615      0.78893608   
       140   531.69663     -211062.09      30.858505     -211031.23      15953.42       4848.2615      0.78893608   
       150   532.0225      -211063.59      30.877418     -211032.71      17743.801      4848.2615      0.78893608   
       160   516.87442     -211064.25      29.998257     -211034.25      21816.993      4848.2615      0.78893608   
       170   478.24876     -211063.45      27.756508     -211035.7       14874.68       4848.2615      0.78893608   
       180   481.45025     -211065.01      27.942316     -211037.07      12900.016      4848.2615      0.78893608   
       190   466.96592     -211065.49      27.101677     -211038.39      8798.6005      4848.2615      0.78893608   
       200   447.48903     -211065.61      25.971281     -211039.64      11664.513      4848.2615      0.78893608   
       210   439.95926     -211066.36      25.53427      -211040.82      13844.47       4848.2615      0.78893608   
       220   440.57856     -211067.55      25.570213     -211041.98      11765.007      4848.2615      0.78893608   
       230   410.37447     -211066.9       23.817233     -211043.09      14592.919      4848.2615      0.78893608   
       240   398.95156     -211067.24      23.154273     -211044.09      9965.107       4848.2615      0.78893608   
       250   401.35051     -211068.36      23.293502     -211045.07      11983.39       4848.2615      0.78893608   
       260   376.40438     -211067.82      21.845684     -211045.98      7741.3637      4848.2615      0.78893608   
       270   377.21657     -211068.75      21.892822     -211046.86      7632.4446      4848.2615      0.78893608   
       280   360.7135      -211068.62      20.93502      -211047.68      8126.7595      4848.2615      0.78893608   
       290   362.13363     -211069.51      21.017441     -211048.49      10691.015      4848.2615      0.78893608   
       300   349.47117     -211069.53      20.28254      -211049.25      13439.508      4848.2615      0.78893608   
       310   358.42955     -211070.78      20.802465     -211049.98      9561.1647      4848.2615      0.78893608   
       320   361.1474      -211071.66      20.960203     -211050.7       6117.335       4848.2615      0.78893608   
       330   353.12287     -211071.9       20.494477     -211051.41      2510.5954      4848.2615      0.78893608   
       340   346.11801     -211072.18      20.087929     -211052.1       2214.2228      4848.2615      0.78893608   
       350   327.74464     -211071.75      19.02158      -211052.73      4159.3785      4848.2615      0.78893608   
       360   337.06818     -211072.91      19.562698     -211053.34      6475.8765      4848.2615      0.78893608   
       370   318.77655     -211072.42      18.501091     -211053.92      6697.1643      4848.2615      0.78893608   
       380   328.91057     -211073.56      19.089248     -211054.47      8940.0796      4848.2615      0.78893608   
       390   324.33678     -211073.84      18.823795     -211055.02      3385.6225      4848.2615      0.78893608   
       400   340.75914     -211075.35      19.776912     -211055.57      5447.6666      4848.2615      0.78893608   
       410   330.16708     -211075.26      19.162173     -211056.1       941.52891      4848.2615      0.78893608   
       420   335.73606     -211076.09      19.485384     -211056.61      7343.3284      4848.2615      0.78893608   
       430   336.36681     -211076.66      19.521991     -211057.14      8887.6527      4848.2615      0.78893608   
       440   311.62717     -211075.68      18.086157     -211057.59      9298.5587      4848.2615      0.78893608   
       450   323.9763      -211076.87      18.802873     -211058.07      9090.1149      4848.2615      0.78893608   
       460   299.30129     -211075.93      17.37079      -211058.56      1657.5799      4848.2615      0.78893608   
       470   303.91232     -211076.66      17.638404     -211059.02      6023.0075      4848.2615      0.78893608   
       480   299.09898     -211076.82      17.359048     -211059.46      1910.7665      4848.2615      0.78893608   
       490   298.18575     -211077.17      17.306047     -211059.87      6418.7377      4848.2615      0.78893608   
       500   290.67591     -211077.09      16.870192     -211060.22      4572.7977      4848.2615      0.78893608   
       510   289.0971      -211077.3       16.778561     -211060.53      3056.3619      4848.2615      0.78893608   
       520   286.00431     -211077.44      16.599063     -211060.84      6392.4677      4848.2615      0.78893608   
       530   274.86178     -211077.04      15.952375     -211061.08      3147.5498      4848.2615      0.78893608   
       540   294.89691     -211078.45      17.115169     -211061.33      7030.3386      4848.2615      0.78893608   
       550   291.71882     -211078.54      16.93072      -211061.61      2221.24        4848.2615      0.78893608   
       560   299.7954      -211079.28      17.399467     -211061.88      3976.783       4848.2615      0.78893608   
       570   292.01603     -211079.03      16.94797      -211062.08      3290.2925      4848.2615      0.78893608   
       580   301.09706     -211079.79      17.475012     -211062.32      3413.1799      4848.2615      0.78893608   
       590   291.04964     -211079.4       16.891882     -211062.51      5484.2947      4848.2615      0.78893608   
       600   300.4737      -211080.15      17.438834     -211062.71      2246.0392      4848.2615      0.78893608   
       610   285.7877      -211079.49      16.586491     -211062.9       5052.7284      4848.2615      0.78893608   
       620   275.88529     -211079.05      16.011776     -211063.04      1300.3147      4848.2615      0.78893608   
       630   291.66194     -211080.12      16.927419     -211063.2       615.24517      4848.2615      0.78893608   
       640   254.73332     -211078.06      14.784163     -211063.28      465.91719      4848.2615      0.78893608   
       650   258.86577     -211078.35      15.024001     -211063.33      636.42052      4848.2615      0.78893608   
       660   261.55208     -211078.55      15.179909     -211063.37      5540.9524      4848.2615      0.78893608   
       670   267.88995     -211078.92      15.547745     -211063.37      4481.5881      4848.2615      0.78893608   
       680   272.14076     -211079.12      15.794453     -211063.32      6597.9796      4848.2615      0.78893608   
       690   283.09227     -211079.69      16.430054     -211063.26      1127.3854      4848.2615      0.78893608   
       700   288.69068     -211079.92      16.754974     -211063.17      2095.65        4848.2615      0.78893608   
       710   276.86774     -211079.12      16.068796     -211063.05      1986.1616      4848.2615      0.78893608   
       720   288.49913     -211079.66      16.743856     -211062.92      4250.4057      4848.2615      0.78893608   
       730   280.93134     -211079.05      16.304639     -211062.74      5857.0822      4848.2615      0.78893608   
       740   274.48213     -211078.48      15.93034      -211062.55      5351.3977      4848.2615      0.78893608   
       750   298.42435     -211079.7       17.319894     -211062.38      4257.5221      4848.2615      0.78893608   
       760   311.44312     -211080.27      18.075475     -211062.2       1319.0169      4848.2615      0.78893608   
       770   303.5395      -211079.62      17.616767     -211062         994.65664      4848.2615      0.78893608   
       780   324.44367     -211080.68      18.829999     -211061.85     -888.24303      4848.2615      0.78893608   
       790   313.54306     -211079.87      18.197351     -211061.67      1309.2031      4848.2615      0.78893608   
       800   305.11159     -211079.22      17.708007     -211061.51      1384.1036      4848.2615      0.78893608   
       810   305.04998     -211079.09      17.704431     -211061.39      4939.1544      4848.2615      0.78893608   
       820   290.0877      -211078.06      16.836054     -211061.23      2494.3569      4848.2615      0.78893608   
       830   307.11186     -211078.9       17.824098     -211061.08      4239.2076      4848.2615      0.78893608   
       840   298.20841     -211078.27      17.307361     -211060.96      535.56919      4848.2615      0.78893608   
       850   318.88782     -211079.37      18.507549     -211060.86      3554.2039      4848.2615      0.78893608   
       860   325.34192     -211079.61      18.882131     -211060.73      2196.4375      4848.2615      0.78893608   
       870   335.57649     -211080.13      19.476123     -211060.66      5025.2261      4848.2615      0.78893608   
       880   334.15225     -211080         19.393463     -211060.6       6164.7099      4848.2615      0.78893608   
       890   308.68207     -211078.5       17.91523      -211060.58      5454.6455      4848.2615      0.78893608   
       900   321.5694      -211079.26      18.663182     -211060.6       5974.8509      4848.2615      0.78893608   
       910   311.61566     -211078.7       18.085489     -211060.61      1151.6458      4848.2615      0.78893608   
       920   314.00645     -211078.88      18.224245     -211060.65      5075.0373      4848.2615      0.78893608   
       930   295.2486      -211077.86      17.135581     -211060.73      842.68725      4848.2615      0.78893608   
       940   311.63587     -211078.9       18.086662     -211060.81      4597.6031      4848.2615      0.78893608   
       950   309.57366     -211078.84      17.966976     -211060.88      2097.5966      4848.2615      0.78893608   
       960   305.07838     -211078.67      17.70608      -211060.96      3805.2377      4848.2615      0.78893608   
       970   319.77154     -211079.63      18.558838     -211061.07      2619.9635      4848.2615      0.78893608   
       980   307.71545     -211079.01      17.859129     -211061.16      926.90597      4848.2615      0.78893608   
       990   318.23581     -211079.73      18.469708     -211061.26      2991.6856      4848.2615      0.78893608   
      1000   310.83867     -211079.45      18.040394     -211061.41      1941.2321      4848.2615      0.78893608   
      1010   317.02979     -211080         18.399713     -211061.6       5562.6255      4848.2615      0.78893608   
      1020   309.62204     -211079.74      17.969783     -211061.77      3971.5781      4848.2615      0.78893608   
      1030   313.30608     -211080.15      18.183597     -211061.97      5281.5937      4848.2615      0.78893608   
      1040   315.96231     -211080.52      18.337759     -211062.18      4648.2362      4848.2615      0.78893608   
      1050   298.14945     -211079.69      17.30394      -211062.38      4265.7007      4848.2615      0.78893608   
      1060   304.4686      -211080.27      17.670689     -211062.6       3892.6376      4848.2615      0.78893608   
      1070   300.88175     -211080.25      17.462516     -211062.79      1504.3227      4848.2615      0.78893608   
      1080   288.59682     -211079.73      16.749526     -211062.98      1862.5132      4848.2615      0.78893608   
      1090   291.15618     -211080.08      16.898066     -211063.18      1471.6052      4848.2615      0.78893608   
      1100   302.79252     -211080.95      17.573413     -211063.38      1089.5063      4848.2615      0.78893608   
      1110   281.52393     -211079.89      16.339031     -211063.55      2623.1412      4848.2615      0.78893608   
      1120   286.11229     -211080.32      16.60533      -211063.71     -84.288707      4848.2615      0.78893608   
      1130   296.79154     -211081.07      17.225129     -211063.84      2162.7841      4848.2615      0.78893608   
      1140   287.54295     -211080.65      16.688362     -211063.96     -1199.3683      4848.2615      0.78893608   
      1150   282.0747      -211080.45      16.370997     -211064.08      2129.5459      4848.2615      0.78893608   
      1160   280.35945     -211080.41      16.271447     -211064.14      870.07561      4848.2615      0.78893608   
      1170   278.14809     -211080.34      16.143105     -211064.19      4490.9961      4848.2615      0.78893608   
      1180   267.2926      -211079.77      15.513076     -211064.25      5847.8709      4848.2615      0.78893608   
      1190   285.64591     -211080.88      16.578262     -211064.3       4411.3845      4848.2615      0.78893608   
      1200   269.35017     -211079.93      15.632493     -211064.29      4035.3608      4848.2615      0.78893608   
      1210   273.08052     -211080.13      15.848994     -211064.28     -170.72554      4848.2615      0.78893608   
      1220   287.62824     -211080.92      16.693312     -211064.22      1987.9417      4848.2615      0.78893608   
      1230   272.32422     -211079.93      15.8051       -211064.13     -102.91722      4848.2615      0.78893608   
      1240   277.91986     -211080.16      16.129859     -211064.03      5651.7447      4848.2615      0.78893608   
      1250   277.25153     -211079.97      16.09107      -211063.88      2326.2191      4848.2615      0.78893608   
      1260   287.77438     -211080.43      16.701793     -211063.73      4718.103       4848.2615      0.78893608   
      1270   279.1019      -211079.76      16.198462     -211063.56      2120.5951      4848.2615      0.78893608   
      1280   296.7702      -211080.61      17.223891     -211063.39     -907.65022      4848.2615      0.78893608   
      1290   303.57408     -211080.81      17.618773     -211063.19      1957.222       4848.2615      0.78893608   
      1300   290.45701     -211079.83      16.857487     -211062.98      876.06523      4848.2615      0.78893608   
      1310   308.05453     -211080.65      17.878809     -211062.78      7903.7269      4848.2615      0.78893608   
      1320   299.9511      -211079.97      17.408503     -211062.56      4013.7575      4848.2615      0.78893608   
      1330   301.46496     -211079.86      17.496365     -211062.37      7888.0273      4848.2615      0.78893608   
      1340   306.20688     -211079.96      17.771575     -211062.19      1519.1724      4848.2615      0.78893608   
      1350   317.53248     -211080.48      18.428888     -211062.05      4114.2848      4848.2615      0.78893608   
      1360   308.21592     -211079.78      17.888175     -211061.89      1143.3899      4848.2615      0.78893608   
      1370   323.10736     -211080.5       18.752442     -211061.75      2590.9133      4848.2615      0.78893608   
      1380   338.24935     -211081.29      19.63125      -211061.65      3787.4312      4848.2615      0.78893608   
      1390   306.79805     -211079.37      17.805885     -211061.56      3036.0452      4848.2615      0.78893608   
      1400   323.14394     -211080.28      18.754565     -211061.52      4858.9301      4848.2615      0.78893608   
      1410   324.16925     -211080.31      18.814072     -211061.5      -456.40486      4848.2615      0.78893608   
      1420   332.16632     -211080.81      19.278204     -211061.53      3754.1204      4848.2615      0.78893608   
      1430   334.05294     -211080.95      19.387699     -211061.57     -376.68709      4848.2615      0.78893608   
      1440   325.97124     -211080.56      18.918655     -211061.64      4089.7257      4848.2615      0.78893608   
      1450   327.15212     -211080.74      18.987191     -211061.75      1125.0505      4848.2615      0.78893608   
      1460   320.2291      -211080.46      18.585394     -211061.87      3150.7048      4848.2615      0.78893608   
      1470   320.40854     -211080.61      18.595808     -211062.02      4131.4291      4848.2615      0.78893608   
      1480   308.29154     -211080.09      17.892564     -211062.2       5358.5497      4848.2615      0.78893608   
      1490   320.94843     -211081.02      18.627142     -211062.39      6243.274       4848.2615      0.78893608   
      1500   314.11782     -211080.84      18.230709     -211062.61      3443.9255      4848.2615      0.78893608   
      1510   291.71737     -211079.74      16.930636     -211062.81      2427.9763      4848.2615      0.78893608   
      1520   314.57605     -211081.27      18.257303     -211063.01      2163.2713      4848.2615      0.78893608   
      1530   299.23053     -211080.57      17.366683     -211063.2       2306.8104      4848.2615      0.78893608   
      1540   304.51718     -211081.09      17.673509     -211063.42      7038.8206      4848.2615      0.78893608   
      1550   299.75156     -211080.99      17.396923     -211063.59      4274.1189      4848.2615      0.78893608   
      1560   297.61173     -211081.06      17.272732     -211063.79      6350.043       4848.2615      0.78893608   
      1570   298.59982     -211081.32      17.330078     -211063.99     -737.19524      4848.2615      0.78893608   
      1580   312.0588      -211082.3       18.111208     -211064.19     -725.91001      4848.2615      0.78893608   
      1590   297.84726     -211081.65      17.286401     -211064.36     -1196.4232      4848.2615      0.78893608   
      1600   298.96066     -211081.89      17.351021     -211064.54      1121.0604      4848.2615      0.78893608   
      1610   304.1469      -211082.37      17.652019     -211064.72      5828.781       4848.2615      0.78893608   
      1620   285.81831     -211081.46      16.588268     -211064.87      5486.4614      4848.2615      0.78893608   
      1630   291.05239     -211081.92      16.892042     -211065.03      5949.8392      4848.2615      0.78893608   
      1640   279.4261      -211081.39      16.217278     -211065.17     -624.40712      4848.2615      0.78893608   
      1650   297.11752     -211082.55      17.244048     -211065.31     -1120.8258      4848.2615      0.78893608   
      1660   279.86902     -211081.66      16.242984     -211065.42     -466.1335       4848.2615      0.78893608   
      1670   294.10749     -211082.59      17.069353     -211065.52      3161.9012      4848.2615      0.78893608   
      1680   288.62984     -211082.35      16.751443     -211065.6       5095.9306      4848.2615      0.78893608   
      1690   263.1182      -211080.92      15.270803     -211065.65      3497.9664      4848.2615      0.78893608   
      1700   286.65308     -211082.33      16.636716     -211065.69      2401.7946      4848.2615      0.78893608   
      1710   264.2173      -211081.02      15.334592     -211065.69     -865.04451      4848.2615      0.78893608   
      1720   268.45745     -211081.23      15.580681     -211065.65      135.54145      4848.2615      0.78893608   
      1730   265.34134     -211080.99      15.399829     -211065.59      2334.7702      4848.2615      0.78893608   
      1740   274.24021     -211081.42      15.9163       -211065.5       4582.9768      4848.2615      0.78893608   
      1750   280.6519      -211081.65      16.288421     -211065.37      4950.7689      4848.2615      0.78893608   
      1760   275.45979     -211081.21      15.987081     -211065.22      3661.8534      4848.2615      0.78893608   
      1770   285.52818     -211081.63      16.571429     -211065.05      2647.4671      4848.2615      0.78893608   
      1780   284.39707     -211081.35      16.505782     -211064.84      2458.4606      4848.2615      0.78893608   
      1790   289.68228     -211081.45      16.812524     -211064.63      1153.2691      4848.2615      0.78893608   
      1800   287.91673     -211081.11      16.710055     -211064.4       3532.7768      4848.2615      0.78893608   
      1810   284.48678     -211080.67      16.510988     -211064.16      1775.2212      4848.2615      0.78893608   
      1820   295.15115     -211081.06      17.129925     -211063.93      3654.9719      4848.2615      0.78893608   
      1830   295.90032     -211080.88      17.173405     -211063.7       850.78718      4848.2615      0.78893608   
      1840   299.81924     -211080.87      17.40085      -211063.47      3686.451       4848.2615      0.78893608   
      1850   307.74399     -211081.09      17.860786     -211063.23      2183.0379      4848.2615      0.78893608   
      1860   304.38625     -211080.67      17.66591      -211063         1304.1452      4848.2615      0.78893608   
      1870   303.92641     -211080.39      17.639222     -211062.75      1379.4155      4848.2615      0.78893608   
      1880   297.946       -211079.81      17.292132     -211062.52      760.97536      4848.2615      0.78893608   
      1890   314.13926     -211080.55      18.231953     -211062.31      3635.5234      4848.2615      0.78893608   
      1900   315.85644     -211080.47      18.331614     -211062.14      2892.4822      4848.2615      0.78893608   
      1910   311.88912     -211080.08      18.10136      -211061.98      6937.8484      4848.2615      0.78893608   
      1920   325.85892     -211080.76      18.912137     -211061.85      3018.9424      4848.2615      0.78893608   
      1930   318.33933     -211080.2       18.475716     -211061.73      2326.4802      4848.2615      0.78893608   
      1940   318.86316     -211080.13      18.506118     -211061.62     -1428.5376      4848.2615      0.78893608   
      1950   318.57229     -211080.03      18.489236     -211061.54      565.72955      4848.2615      0.78893608   
      1960   304.99606     -211079.17      17.701302     -211061.47      2955.4391      4848.2615      0.78893608   
      1970   321.84557     -211080.1       18.67921      -211061.42      6283.8084      4848.2615      0.78893608   
      1980   322.19881     -211080.11      18.699712     -211061.41      5382.6899      4848.2615      0.78893608   
      1990   319.85885     -211079.98      18.563905     -211061.41      3421.6086      4848.2615      0.78893608   
      2000   313.01865     -211079.6       18.166915     -211061.43     -908.60653      4848.2615      0.78893608   
Loop time of 388.545 on 8 procs for 2000 steps with 450 atoms

Performance: 0.222 ns/day, 107.929 hours/ns, 5.147 timesteps/s, 2.316 katom-step/s
180.0% CPU use with 1 MPI tasks x 8 OpenMP threads

MPI task timing breakdown:
Section |  min time  |  avg time  |  max time  |%varavg| %total
---------------------------------------------------------------
Pair    | 388.06     | 388.06     | 388.06     |   0.0 | 99.87
Neigh   | 0.36815    | 0.36815    | 0.36815    |   0.0 |  0.09
Comm    | 0.065464   | 0.065464   | 0.065464   |   0.0 |  0.02
Output  | 0.0079983  | 0.0079983  | 0.0079983  |   0.0 |  0.00
Modify  | 0.035276   | 0.035276   | 0.035276   |   0.0 |  0.01
Other   |            | 0.01233    |            |       |  0.00

Nlocal:            450 ave         450 max         450 min
Histogram: 1 0 0 0 0 0 0 0 0 0
Nghost:           5915 ave        5915 max        5915 min
Histogram: 1 0 0 0 0 0 0 0 0 0
Neighs:              0 ave           0 max           0 min
Histogram: 1 0 0 0 0 0 0 0 0 0
FullNghs:       301388 ave      301388 max      301388 min
Histogram: 1 0 0 0 0 0 0 0 0 0

Total # of neighbors = 301388
Ave neighs/atom = 669.75111
Neighbor list builds = 58
Dangerous builds = 0
unfix           1

# ------------------------------------------------------------------
# Stage 2: NPT equilibration
# Lets the box find its equilibrium volume/density under MACE-OFF23
# at 1 atm, 300 K. Isotropic coupling assumes a homogeneous liquid;
# switch to "aniso" if your system is anisotropic (e.g. a crystal).
# ------------------------------------------------------------------
fix             2 all npt temp ${Tinit} ${Trun} $(100.0*dt)                         iso ${Patm} ${Patm} $(1000.0*dt)
fix             2 all npt temp 300 ${Trun} $(100.0*dt)                         iso ${Patm} ${Patm} $(1000.0*dt)
fix             2 all npt temp 300 300 $(100.0*dt)                         iso ${Patm} ${Patm} $(1000.0*dt)
fix             2 all npt temp 300 300 0.050000000000000002776                         iso ${Patm} ${Patm} $(1000.0*dt)
fix             2 all npt temp 300 300 0.050000000000000002776                         iso 1.01325 ${Patm} $(1000.0*dt)
fix             2 all npt temp 300 300 0.050000000000000002776                         iso 1.01325 1.01325 $(1000.0*dt)
fix             2 all npt temp 300 300 0.050000000000000002776                         iso 1.01325 1.01325 0.5
run             4000                     # 2 ps
Generated 0 of 6 mixed pair_coeff terms from geometric mixing rule
Per MPI rank memory allocation (min/avg/max) = 10.73 | 10.73 | 10.73 Mbytes
   Step          Temp          PotEng         KinEng         TotEng         Press          Volume        Density    
      2000   313.01865     -211079.6       18.166915     -211061.43     -908.60653      4848.2615      0.78893608   
      2010   306.31695     -211079.21      17.777964     -211061.43     -1285.8285      4847.7518      0.78901902   
      2020   322.91886     -211080.19      18.741502     -211061.45      732.85837      4846.819       0.78917087   
      2030   300.9336      -211078.92      17.465526     -211061.45      3536.2529      4846.2966      0.78925595   
      2040   319.76569     -211080.04      18.558499     -211061.49      6289.8625      4847.0645      0.78913089   
      2050   306.92856     -211079.36      17.81346      -211061.55      3048.0518      4849.9479      0.78866174   
      2060   308.72759     -211079.55      17.917871     -211061.63      5669.5787      4854.2507      0.78796268   
      2070   300.49116     -211079.16      17.439847     -211061.72      881.03586      4860.3168      0.78697923   
      2080   303.59762     -211079.44      17.620139     -211061.82      3558.1021      4867.1521      0.78587402   
      2090   312.98772     -211080.09      18.16512      -211061.92      465.10374      4875.0309      0.78460393   
      2100   318.02255     -211080.5       18.457331     -211062.04      3417.7083      4883.4559      0.78325031   
      2110   308.10605     -211080.11      17.881799     -211062.23      3997.3207      4893.0006      0.78172245   
      2120   304.92146     -211080.12      17.696972     -211062.42      4130.3034      4904.1132      0.77995108   
      2130   302.02578     -211080.17      17.528913     -211062.65      3367.1942      4916.7544      0.77794579   
      2140   294.94446     -211079.99      17.117929     -211062.87      287.01129      4930.5486      0.77576934   
      2150   298.34563     -211080.4       17.315325     -211063.08      481.47662      4944.5887      0.77356654   
      2160   289.23814     -211080.03      16.786747     -211063.25     -493.87107      4958.7411      0.77135876   
      2170   300.70363     -211080.84      17.452178     -211063.39     -869.84135      4972.7694      0.76918274   
      2180   291.58922     -211080.44      16.923198     -211063.52      561.76674      4986.5056      0.76706389   
      2190   288.0204      -211080.34      16.716072     -211063.62      2084.6184      5000.4611      0.76492313   
      2200   285.81639     -211080.3       16.588156     -211063.72      4242.2005      5015.1993      0.76267525   
      2210   275.43183     -211079.79      15.985459     -211063.8       4009.2851      5031.4469      0.76021241   
      2220   294.24252     -211080.92      17.07719      -211063.84      113.14312      5048.9502      0.75757697   
      2230   279.69841     -211080.09      16.233082     -211063.86     -680.39061      5066.4305      0.75496317   
      2240   304.12616     -211081.49      17.650815     -211063.84     -2588.3446      5083.2544      0.75246448   
      2250   292.11456     -211080.79      16.953688     -211063.83      1204.51        5099.0699      0.7501306    
      2260   314.22337     -211082.08      18.236835     -211063.84      1554.5547      5114.9704      0.74779873   
      2270   305.59015     -211081.61      17.735781     -211063.87      3112.0137      5131.4205      0.74540147   
      2280   291.99162     -211080.84      16.946553     -211063.89      875.32187      5148.7732      0.74288927   
      2290   294.8114      -211081         17.110206     -211063.89     -985.46816      5166.2047      0.74038266   
      2300   270.79363     -211079.56      15.716268     -211063.85     -1870.7572      5182.9075      0.73799665   
      2310   302.61872     -211081.36      17.563326     -211063.8      -1327.5093      5198.4008      0.73579713   
      2320   285.81563     -211080.34      16.588112     -211063.76     -1244.0617      5212.89        0.73375198   
      2330   298.34176     -211081.04      17.315101     -211063.73      535.02691      5226.5181      0.73183873   
      2340   302.71255     -211081.26      17.568772     -211063.69      296.09278      5239.9262      0.72996608   
      2350   306.40049     -211081.44      17.782812     -211063.66      1483.2184      5253.2424      0.72811573   
      2360   297.5726      -211080.92      17.270461     -211063.64     -344.62217      5266.7351      0.72625038   
      2370   295.50477     -211080.74      17.150448     -211063.58     -2366.2687      5279.7129      0.72446522   
      2380   305.48853     -211081.28      17.729884     -211063.55     -1096.474       5291.415       0.72286305   
      2390   304.81635     -211081.19      17.690872     -211063.5      -2547.4975      5302.0708      0.72141028   
      2400   302.75345     -211081.06      17.571146     -211063.48      1432.062       5311.5844      0.72011816   
      2410   297.97634     -211080.76      17.293893     -211063.47     -1157.3841      5321.0645      0.71883519   
      2420   309.78338     -211081.44      17.979147     -211063.46      1992.5401      5330.1626      0.7176082    
      2430   291.5586      -211080.35      16.921421     -211063.43     -1744.8707      5339.5348      0.71634861   
      2440   291.78162     -211080.33      16.934365     -211063.39     -596.52132      5348.1758      0.71519122   
      2450   282.74398     -211079.75      16.40984      -211063.34     -2057.5198      5356.126       0.71412965   
      2460   295.06621     -211080.4       17.124995     -211063.28     -1051.0787      5362.969       0.71321844   
      2470   309.21629     -211081.17      17.946235     -211063.22      39.788114      5369.1171      0.71240174   
      2480   293.37127     -211080.18      17.026625     -211063.16      1275.7589      5374.9994      0.7116221    
      2490   315.74148     -211081.45      18.324943     -211063.12      3463.0693      5381.3636      0.71078052   
      2500   311.71719     -211081.17      18.091381     -211063.08      1898.3357      5388.9214      0.70978367   
      2510   301.81875     -211080.57      17.516898     -211063.05      2270.8551      5397.3406      0.70867649   
      2520   296.09219     -211080.18      17.184541     -211063        -654.96135      5406.4576      0.70748143   
      2530   298.72714     -211080.26      17.337468     -211062.92      462.57991      5415.252       0.70633248   
      2540   312.46609     -211080.96      18.134846     -211062.82     -1033.4179      5423.9261      0.70520289   
      2550   299.65217     -211080.11      17.391154     -211062.72      2085.9839      5432.0616      0.70414672   
      2560   302.20554     -211080.16      17.539346     -211062.62      1728.2599      5440.7765      0.70301884   
      2570   304.60136     -211080.17      17.678394     -211062.5       3670.6263      5450.2159      0.70180126   
      2580   296.18102     -211079.54      17.189696     -211062.35     -1206.1473      5460.7435      0.70044828   
      2590   299.2771      -211079.52      17.369386     -211062.15      531.34514      5470.8894      0.69914928   
      2600   301.10945     -211079.4       17.475732     -211061.92     -2159.9532      5480.6006      0.69791044   
      2610   308.2388      -211079.58      17.889504     -211061.69      2003.0121      5489.5229      0.6967761    
      2620   315.02932     -211079.76      18.28361      -211061.47      508.8988       5498.6978      0.69561349   
      2630   329.89627     -211080.43      19.146455     -211061.28      2886.0748      5508.1839      0.69441552   
      2640   318.9357      -211079.64      18.510328     -211061.13      3383.6703      5518.7172      0.69309012   
      2650   324.94743     -211079.89      18.859236     -211061.03      2176.0639      5530.6209      0.69159837   
      2660   325.84076     -211079.85      18.911083     -211060.94      1220.5363      5543.4278      0.69000057   
      2670   326.61822     -211079.82      18.956205     -211060.87     -881.4577       5556.4256      0.6883865    
      2680   330.45118     -211080.02      19.178661     -211060.84      1449.4516      5569           0.68683217   
      2690   345.0304      -211080.88      20.024807     -211060.86      164.83648      5581.7467      0.6852637    
      2700   324.28149     -211079.73      18.820586     -211060.91      1683.6977      5594.5028      0.68370122   
      2710   338.69481     -211080.68      19.657104     -211061.03      1838.1102      5607.7463      0.68208656   
      2720   325.8478      -211080.08      18.911491     -211061.17      1874.849       5621.5527      0.68041137   
      2730   310.47549     -211079.36      18.019316     -211061.34      1631.7525      5636.0534      0.67866078   
      2740   320.30776     -211080.1       18.58996      -211061.51     -2145.1831      5650.7052      0.67690106   
      2750   309.34325     -211079.63      17.953604     -211061.68     -297.82248      5664.2779      0.67527908   
      2760   325.0826      -211080.72      18.86708      -211061.86     -1370.9123      5677.1093      0.67375281   
      2770   306.53162     -211079.83      17.790422     -211062.04      1706.6541      5689.1627      0.67232536   
      2780   316.94144     -211080.61      18.394585     -211062.22      2381.0884      5701.6868      0.67084855   
      2790   320.06893     -211080.98      18.576098     -211062.41      3294.4447      5715.1327      0.66927027   
      2800   302.88208     -211080.16      17.578611     -211062.59      1708.1038      5729.9026      0.6675451    
      2810   299.54732     -211080.1       17.385069     -211062.71     -782.94208      5745.1424      0.66577434   
      2820   292.26925     -211079.76      16.962666     -211062.8      -1765.4068      5759.7008      0.66409151   
      2830   311.43762     -211080.94      18.075156     -211062.87      1071.8584      5773.2948      0.66252781   
      2840   294.26216     -211080.03      17.07833      -211062.95      1929.4663      5787.0024      0.66095849   
      2850   294.3238      -211080.11      17.081907     -211063.02      4292.3374      5801.7328      0.65928034   
      2860   297.70714     -211080.36      17.278269     -211063.08      1565.702       5818.0691      0.65742918   
      2870   281.9581      -211079.5       16.364229     -211063.13      2043.575       5835.2144      0.65549748   
      2880   286.98997     -211079.79      16.656268     -211063.14     -2336.7252      5852.6524      0.65354443   
      2890   275.19518     -211079.08      15.971724     -211063.1      -2291.8112      5868.6473      0.6517632    
      2900   274.21083     -211078.98      15.914594     -211063.07     -1277.1843      5882.9835      0.65017493   
      2910   297.33688     -211080.28      17.25678      -211063.03      331.59958      5896.1739      0.64872041   
      2920   294.46112     -211080.07      17.089877     -211062.98      2430.8234      5909.3393      0.64727513   
      2930   292.96027     -211079.94      17.002771     -211062.94     -578.64638      5923.1249      0.64576865   
      2940   305.67408     -211080.63      17.740652     -211062.89      422.37619      5936.6402      0.6442985    
      2950   298.38004     -211080.13      17.317323     -211062.81     -2821.7168      5949.7202      0.64288206   
      2960   297.25063     -211080         17.251774     -211062.75      364.95967      5961.4034      0.64162213   
      2970   301.16901     -211080.16      17.479188     -211062.68     -1622.9288      5972.6538      0.64041354   
      2980   300.44776     -211080.05      17.437329     -211062.61      1473.3273      5983.1475      0.63929034   
      2990   306.08495     -211080.3       17.764499     -211062.53     -754.62333      5993.923       0.63814106   
      3000   299.38421     -211079.83      17.375603     -211062.45      752.86591      6004.3138      0.63703672   
      3010   302.61167     -211079.94      17.562917     -211062.38      95.742692      6014.807       0.63592537   
      3020   304.0989      -211079.93      17.649232     -211062.28     -842.34642      6025.1406      0.63483471   
      3030   297.27215     -211079.46      17.253023     -211062.2      -573.89628      6034.8443      0.63381392   
      3040   297.61795     -211079.37      17.273093     -211062.09     -3320.5572      6043.7862      0.63287619   
      3050   306.97255     -211079.81      17.816013     -211061.99     -1165.3409      6050.8655      0.63213574   
      3060   305.62668     -211079.65      17.737902     -211061.91     -2472.8857      6056.783       0.63151814   
      3070   312.28311     -211079.96      18.124226     -211061.84      402.72888      6061.4136      0.63103571   
      3080   318.72943     -211080.27      18.498357     -211061.77     -809.43464      6065.8858      0.63057046   
      3090   309.7238      -211079.7       17.975689     -211061.72      985.78026      6070.1053      0.63013213   
      3100   303.0785      -211079.27      17.590011     -211061.68     -86.353323      6074.6522      0.62966048   
      3110   305.33102     -211079.35      17.720742     -211061.62     -2658.5341      6079.0266      0.62920738   
      3120   297.59858     -211078.84      17.271968     -211061.57     -2137.4097      6081.9117      0.62890889   
      3130   307.19619     -211079.35      17.828993     -211061.53     -2587.5874      6083.342       0.62876103   
      3140   305.52417     -211079.22      17.731952     -211061.49      2185.1613      6083.5304      0.62874156   
      3150   299.06276     -211078.8       17.356946     -211061.44      2203.4516      6084.6435      0.62862654   
      3160   309.55612     -211079.37      17.965958     -211061.41      2712.6802      6087.2139      0.6283611    
      3170   289.4843      -211078.16      16.801033     -211061.36     -1538.6643      6091.0003      0.62797047   
      3180   305.11433     -211078.99      17.708166     -211061.28     -3205.6105      6094.0968      0.6276514    
      3190   294.75957     -211078.3       17.107198     -211061.2      -3888.4992      6095.2245      0.62753527   
      3200   303.67971     -211078.72      17.624904     -211061.09     -415.9103       6094.3041      0.62763005   
      3210   316.60713     -211079.35      18.375183     -211060.97      2175.777       6093.1331      0.62775067   
      3220   292.45986     -211077.82      16.973729     -211060.85      3120.3544      6093.1303      0.62775095   
      3230   319.04476     -211079.24      18.516658     -211060.72      738.44213      6094.8386      0.627575     
      3240   298.17318     -211077.88      17.305317     -211060.58     -1525.3699      6096.905       0.6273623    
      3250   308.41517     -211078.33      17.89974      -211060.43     -822.04868      6098.2912      0.6272197    
      3260   314.6234      -211078.54      18.260051     -211060.28     -1179.3964      6099.0483      0.62714184   
      3270   316.06999     -211078.48      18.344008     -211060.14      1530.5577      6099.3159      0.62711432   
      3280   336.09418     -211079.51      19.506168     -211060         1455.3728      6100.4086      0.627002     
      3290   325.68962     -211078.79      18.90231      -211059.89      1954.98        6102.4396      0.62679332   
      3300   327.0786      -211078.81      18.982924     -211059.83     -410.13044      6105.5136      0.62647775   
      3310   306.148       -211077.53      17.768158     -211059.76      361.92883      6108.5497      0.62616637   
      3320   318.69729     -211078.22      18.496491     -211059.72     -1079.7042      6111.6247      0.62585132   
      3330   311.32787     -211077.76      18.068786     -211059.69      917.3211       6114.3126      0.62557619   
      3340   302.47846     -211077.24      17.555186     -211059.69     -1259.8275      6117.1269      0.62528838   
      3350   320.52021     -211078.28      18.60229      -211059.68      1313.8299      6119.5953      0.62503616   
      3360   310.49597     -211077.71      18.020504     -211059.69     -810.51975      6122.3529      0.62475464   
      3370   309.3361      -211077.69      17.953188     -211059.74      1572.3153      6124.9728      0.62448741   
      3380   305.58647     -211077.54      17.735568     -211059.8       373.98754      6128.0862      0.62417013   
      3390   319.17647     -211078.42      18.524302     -211059.89      1553.6962      6131.5147      0.62382113   
      3400   316.64918     -211078.4       18.377624     -211060.02      2241.0361      6135.8268      0.62338271   
      3410   310.5128      -211078.19      18.021482     -211060.16     -2210.1303      6141.021       0.62285545   
      3420   323.63511     -211079.12      18.783071     -211060.34      1346.739       6145.5898      0.6223924    
      3430   306.37472     -211078.32      17.781317     -211060.53     -2843.1129      6150.1751      0.62192837   
      3440   310.45682     -211078.78      18.018232     -211060.76      4598.2503      6154.0362      0.62153817   
      3450   310.9416      -211079.04      18.046368     -211061        -1214.8741      6159.5146      0.62098536   
      3460   303.49493     -211078.85      17.61418      -211061.24      2459.125       6164.9987      0.62043296   
      3470   301.91593     -211078.97      17.522538     -211061.45     -1889.1031      6171.2342      0.61980607   
      3480   304.75975     -211079.32      17.687587     -211061.63     -1037.9868      6176.665       0.6192611    
      3490   282.75105     -211078.17      16.41025      -211061.76     -246.71062      6181.4299      0.61878375   
      3500   303.96851     -211079.52      17.641665     -211061.88     -907.86011      6185.8107      0.61834552   
      3510   301.12106     -211079.45      17.476405     -211061.98      3097.2255      6190.0827      0.61791878   
      3520   287.93241     -211078.76      16.710965     -211062.05     -1435.4223      6195.5135      0.61737713   
      3530   296.86943     -211079.34      17.22965      -211062.11      2080.831       6200.774       0.61685338   
      3540   294.07147     -211079.2       17.067263     -211062.13     -1660.7797      6206.6687      0.61626753   
      3550   296.77726     -211079.39      17.224301     -211062.16      2769.0102      6212.1877      0.61572003   
      3560   284.13907     -211078.67      16.490808     -211062.18     -231.62429      6218.8108      0.61506428   
      3570   308.04162     -211080.06      17.87806      -211062.18      1911.6181      6225.6507      0.61438853   
      3580   295.64655     -211079.35      17.158677     -211062.19      508.32651      6233.3647      0.61362821   
      3590   297.50236     -211079.46      17.266384     -211062.19      962.48718      6241.4551      0.6128328    
      3600   293.71322     -211079.24      17.046471     -211062.2      -232.83217      6249.9965      0.61199528   
      3610   297.02114     -211079.41      17.238455     -211062.18      791.60664      6258.5114      0.61116264   
      3620   300.91224     -211079.63      17.464286     -211062.17      1288.8371      6267.4302      0.61029294   
      3630   291.85576     -211079.07      16.938668     -211062.13     -196.7227       6276.9912      0.60936335   
      3640   294.31751     -211079.19      17.081542     -211062.11     -22.233004      6286.3544      0.60845573   
      3650   292.07768     -211079.02      16.951547     -211062.07     -1209.2421      6295.4492      0.60757672   
      3660   310.11854     -211080.04      17.9986       -211062.04      1484.959       6303.8802      0.60676413   
      3670   293.58337     -211079.07      17.038934     -211062.03     -966.36325      6312.7109      0.60591534   
      3680   309.46441     -211079.98      17.960635     -211062.02      2350.0006      6321.2855      0.60509344   
      3690   301.45636     -211079.5       17.495865     -211062.01     -784.97581      6330.7157      0.60419209   
      3700   309.24543     -211079.95      17.947926     -211062         1566.8733      6340.1057      0.60329726   
      3710   313.12913     -211080.16      18.173328     -211061.99     -1521.8089      6349.9162      0.60236517   
      3720   303.9602      -211079.63      17.641183     -211061.99      1285.5039      6359.2492      0.60148113   
      3730   303.52835     -211079.62      17.616119     -211062         848.79922      6369           0.60056027   
      3740   291.58206     -211078.93      16.922783     -211062.01     -208.66747      6379.2045      0.59959959   
      3750   298.63959     -211079.35      17.332386     -211062.01      299.77468      6389.3158      0.5986507    
      3760   296.32194     -211079.2       17.197875     -211062        -2374.8563      6399.1364      0.59773196   
      3770   292.94731     -211079         17.002019     -211061.99      1051.892       6407.8314      0.59692088   
      3780   286.52872     -211078.61      16.629498     -211061.99     -1277.9338      6416.5297      0.5961117    
      3790   296.41928     -211079.17      17.203524     -211061.97      467.64011      6424.6514      0.59535812   
      3800   300.52828     -211079.37      17.442002     -211061.93     -738.05652      6432.6927      0.59461388   
      3810   299.08272     -211079.25      17.358105     -211061.89     -1180.755       6440.1674      0.59392375   
      3820   303.6402      -211079.46      17.622611     -211061.84     -629.16784      6446.9382      0.59329999   
      3830   295.14292     -211078.9       17.129447     -211061.77     -1100.9853      6452.9337      0.59274875   
      3840   295.87554     -211078.89      17.171967     -211061.72      2852.7063      6458.5891      0.59222972   
      3850   283.08171     -211078.08      16.429441     -211061.66      313.4644       6465.331       0.59161215   
      3860   287.46916     -211078.27      16.684079     -211061.59      2729.6479      6472.6112      0.59094672   
      3870   293.07358     -211078.5       17.009348     -211061.49      4.9816656      6481.0826      0.5901743    
      3880   295.87722     -211078.55      17.172064     -211061.38      596.9953       6489.6806      0.58939239   
      3890   307.68316     -211079.09      17.857255     -211061.23     -1739.5675      6498.4834      0.58859401   
      3900   298.66146     -211078.41      17.333656     -211061.08     -1077.1464      6506.1673      0.58789887   
      3910   304.76805     -211078.6       17.688069     -211060.91      971.44329      6513.375       0.58724829   
      3920   306.8316      -211078.54      17.807832     -211060.73     -264.64793      6520.854       0.58657476   
      3930   293.47492     -211077.61      17.03264      -211060.57      434.22884      6528.3564      0.58590066   
      3940   309.08944     -211078.33      17.938873     -211060.39     -1417.1969      6535.854       0.58522855   
      3950   305.43873     -211077.96      17.726993     -211060.23     -371.26485      6542.4505      0.58463849   
      3960   302.05927     -211077.62      17.530857     -211060.09     -571.67289      6548.6777      0.58408255   
      3970   314.77255     -211078.23      18.268708     -211059.97     -349.64863      6554.2653      0.58358461   
      3980   308.88838     -211077.79      17.927204     -211059.86     -49.714671      6559.6488      0.58310567   
      3990   307.62539     -211077.64      17.853902     -211059.79      509.96345      6564.8006      0.58264806   
      4000   313.44349     -211077.93      18.191572     -211059.74     -120.18266      6570.2296      0.58216662   
      4010   307.89097     -211077.55      17.869316     -211059.68      1605.1041      6575.748       0.58167807   
      4020   307.19929     -211077.48      17.829173     -211059.65      848.38575      6582.041       0.58112193   
      4030   320.27897     -211078.21      18.588288     -211059.62      1757.2784      6589.1757      0.5804927    
      4040   302.29673     -211077.15      17.544639     -211059.6      -583.379        6596.9551      0.57980815   
      4050   309.12857     -211077.55      17.941144     -211059.61      257.93537      6604.5949      0.57913747   
      4060   311.64233     -211077.71      18.087037     -211059.62     -535.24596      6611.9441      0.57849376   
      4070   312.51631     -211077.8       18.137761     -211059.67     -133.6074       6618.9958      0.57787744   
      4080   313.25268     -211077.89      18.180498     -211059.71      34.738407      6625.8352      0.57728094   
      4090   320.00919     -211078.35      18.572631     -211059.77     -733.65719      6632.5264      0.57669855   
      4100   321.09757     -211078.49      18.635798     -211059.86      122.70716      6638.8634      0.57614808   
      4110   299.12613     -211077.32      17.360624     -211059.96     -2401.3838      6644.7837      0.57563475   
      4120   317.18871     -211078.49      18.408937     -211060.08     -1587.5788      6649.2892      0.5752447    
      4130   310.28614     -211078.24      18.008326     -211060.23     -936.8679       6652.4091      0.57497492   
      4140   307.66462     -211078.25      17.856179     -211060.4       1686.2632      6655.003       0.57475081   
      4150   310.05609     -211078.57      17.994975     -211060.57      2711.3775      6658.6786      0.57443355   
      4160   299.67511     -211078.15      17.392486     -211060.75      2095.4841      6664.0443      0.57397103   
      4170   301.84512     -211078.46      17.518428     -211060.94      1085.0571      6670.9046      0.57338076   
      4180   297.61409     -211078.36      17.272869     -211061.09     -1139.2608      6678.2643      0.57274888   
      4190   308.66231     -211079.15      17.914083     -211061.24     -1084.5969      6684.9605      0.57217517   
      4200   290.45477     -211078.21      16.857358     -211061.35      498.69414      6690.8917      0.57166795   
      4210   300.90871     -211078.92      17.464081     -211061.45      2085.7507      6697.1786      0.57113131   
      4220   292.91611     -211078.54      17.000208     -211061.54      1246.6049      6704.726       0.5704884    
      4230   272.43838     -211077.41      15.811726     -211061.6       1561.4703      6713.1464      0.56977282   
      4240   284.00664     -211078.1       16.483122     -211061.62     -974.10956      6722.2909      0.56899775   
      4250   276.75864     -211077.69      16.062464     -211061.63     -344.75424      6730.8032      0.56827814   
      4260   276.78382     -211077.68      16.063925     -211061.62     -2319.988       6738.6335      0.5676178    
      4270   283.45587     -211078.03      16.451156     -211061.58      1294.2306      6745.2348      0.56706231   
      4280   288.35499     -211078.27      16.735491     -211061.54      1499.1839      6752.3891      0.56646149   
      4290   286.88251     -211078.14      16.650031     -211061.49      3940.3184      6760.9858      0.56574122   
      4300   289.71715     -211078.24      16.814547     -211061.42      1666.7007      6772.0274      0.5648188    
      4310   283.5817      -211077.8       16.45846      -211061.35      1448.9954      6784.3838      0.5637901    
      4320   274.34345     -211077.19      15.922292     -211061.26      1120.7183      6797.6458      0.56269016   
      4330   284.77759     -211077.68      16.527866     -211061.15     -1227.8794      6811.251       0.56156621   
      4340   283.6038      -211077.5       16.459742     -211061.04      855.56965      6824.1409      0.56050548   
      4350   290.6452      -211077.8       16.86841      -211060.93     -447.86426      6836.9979      0.55945145   
      4360   293.2431      -211077.85      17.019186     -211060.83      1754.4554      6849.7354      0.55841111   
      4370   298.73543     -211078.06      17.337949     -211060.72     -646.57989      6863.0973      0.55732394   
      4380   304.28095     -211078.28      17.659798     -211060.62      325.51787      6876.127       0.55626785   
      4390   287.10551     -211077.18      16.662973     -211060.52     -1328.1135      6888.9617      0.55523148   
      4400   308.77053     -211078.35      17.920364     -211060.43     -741.11017      6900.8269      0.55427682   
      4410   306.51362     -211078.11      17.789378     -211060.32     -2619.7613      6911.7969      0.5533971    
      4420   303.59141     -211077.84      17.619779     -211060.22     -48.622507      6920.9476      0.55266541   
      4430   309.02552     -211078.09      17.935163     -211060.16      296.45836      6929.6989      0.55196747   
      4440   305.946       -211077.87      17.756434     -211060.11      2396.4496      6938.6403      0.55125618   
      4450   303.88302     -211077.72      17.636703     -211060.08      804.05481      6948.8834      0.5504436    
      4460   313.49665     -211078.25      18.194657     -211060.06      379.27351      6959.6588      0.54959136   
      4470   307.72102     -211077.91      17.859453     -211060.05     -590.53165      6970.4027      0.54874424   
      4480   315.53136     -211078.35      18.312747     -211060.04     -1816.3361      6980.5561      0.54794608   
      4490   315.40237     -211078.36      18.305262     -211060.05      301.88474      6989.3605      0.54725585   
      4500   318.84176     -211078.58      18.504876     -211060.08     -790.9178       6997.9914      0.54658089   
      4510   303.27745     -211077.73      17.601557     -211060.13      1573.9158      7006.173       0.54594261   
      4520   300.76616     -211077.64      17.455808     -211060.18     -2281.5978      7014.8083      0.54527055   
      4530   319.27336     -211078.79      18.529925     -211060.26      189.53494      7022.0872      0.54470534   
      4540   291.7256      -211077.27      16.931114     -211060.34     -1263.0609      7028.8714      0.54417959   
      4550   318.20108     -211078.91      18.467692     -211060.44      508.80461      7034.931       0.54371086   
      4560   303.06813     -211078.14      17.589409     -211060.55     -1375.4645      7040.9143      0.54324882   
      4570   298.4466      -211077.97      17.321186     -211060.65     -498.09117      7046.0248      0.5428548    
      4580   308.17652     -211078.67      17.885889     -211060.78      803.15838      7050.6603      0.54249789   
      4590   295.6669      -211078.06      17.159858     -211060.9       341.70817      7055.7491      0.54210663   
      4600   310.44256     -211079.05      18.017405     -211061.04      2316.5561      7061.2425      0.54168489   
      4610   303.13217     -211078.78      17.593126     -211061.19     -864.00409      7067.9183      0.54117326   
      4620   303.63711     -211078.98      17.622431     -211061.35      1910.7814      7074.3885      0.54067831   
      4630   293.97154     -211078.56      17.061463     -211061.5      -2265.4355      7081.4847      0.5401365    
      4640   316.42161     -211080.02      18.364416     -211061.66      1406.6231      7087.4956      0.53967841   
      4650   306.78256     -211079.62      17.804987     -211061.82     -2121.6468      7093.762       0.53920168   
      4660   310.61431     -211079.99      18.027373     -211061.96      888.29256      7099.0765      0.53879803   
      4670   317.74932     -211080.55      18.441473     -211062.11     -1322.7343      7104.4932      0.53838722   
      4680   303.20166     -211079.83      17.597159     -211062.23     -248.79515      7109.2657      0.53802581   
      4690   289.55337     -211079.15      16.805042     -211062.34     -152.51901      7113.6477      0.53769437   
      4700   284.97461     -211078.96      16.539301     -211062.42     -2395.2955      7117.6186      0.5373944    
      4710   294.75028     -211079.58      17.106659     -211062.48     -66.823811      7119.9754      0.53721652   
      4720   292.44455     -211079.49      16.97284      -211062.52     -2424.2877      7121.5639      0.53709669   
      4730   296.13979     -211079.75      17.187303     -211062.57      3096.353       7122.0221      0.53706213   
      4740   291.32886     -211079.49      16.908088     -211062.59     -1742.8839      7123.7904      0.53692882   
      4750   298.24269     -211079.91      17.309351     -211062.6       788.4963       7125.0684      0.53683252   
      4760   287.68595     -211079.3       16.696661     -211062.6      -3331.4113      7126.1261      0.53675283   
      4770   285.47601     -211079.16      16.568401     -211062.59      20.957037      7125.3118      0.53681418   
      4780   281.14588     -211078.88      16.31709      -211062.56      459.99983      7124.148       0.53690187   
      4790   289.14645     -211079.31      16.781425     -211062.53      237.83034      7123.2853      0.5369669    
      4800   279.89687     -211078.73      16.2446       -211062.48      1206.5638      7122.781       0.53700491   
      4810   272.82905     -211078.26      15.834399     -211062.43     -1707.4042      7122.7789      0.53700507   
      4820   291.99928     -211079.3       16.946998     -211062.35      291.81466      7122.0111      0.53706296   
      4830   285.47469     -211078.82      16.568325     -211062.26     -1568.3362      7121.0176      0.53713789   
      4840   281.06962     -211078.46      16.312664     -211062.14      1469.8307      7119.3802      0.53726143   
      4850   285.75965     -211078.61      16.584863     -211062.02      244.79988      7118.5258      0.53732591   
      4860   296.84996     -211079.12      17.22852      -211061.89      812.12355      7118.0279      0.5373635    
      4870   294.71431     -211078.87      17.104572     -211061.77     -277.13901      7118.0802      0.53735955   
      4880   289.51186     -211078.45      16.802633     -211061.65     -452.74758      7117.9194      0.53737169   
      4890   294.97587     -211078.65      17.119752     -211061.53     -106.21021      7117.5445      0.53739999   
      4900   306.73704     -211079.2       17.802345     -211061.4       267.48252      7117.0872      0.53743453   
      4910   297.12003     -211078.52      17.244194     -211061.28      1262.0052      7117.0225      0.53743941   
      4920   295.41813     -211078.31      17.14542      -211061.16      1041.8237      7117.9993      0.53736566   
      4930   302.77555     -211078.62      17.572428     -211061.05     -546.87952      7119.6416      0.5372417    
      4940   279.77358     -211077.19      16.237445     -211060.95     -496.10539      7121.0273      0.53713716   
      4950   298.93999     -211078.2       17.349821     -211060.85      617.84191      7121.9495      0.5370676    
      4960   285.50952     -211077.32      16.570346     -211060.74      669.14556      7123.2184      0.53697194   
      4970   295.80365     -211077.83      17.167795     -211060.66      2321.1918      7125.1147      0.53682902   
      4980   303.51329     -211078.18      17.615245     -211060.56     -1242.3663      7128.2646      0.5365918    
      4990   293.92776     -211077.55      17.058922     -211060.49      1569.1625      7131.0778      0.53638012   
      5000   308.11628     -211078.3       17.882392     -211060.42     -2164.0655      7134.3011      0.53613779   
      5010   306.37294     -211078.13      17.781213     -211060.35      921.94642      7136.5571      0.5359683    
      5020   307.92734     -211078.16      17.871427     -211060.29     -661.85817      7139.0094      0.53578419   
      5030   300.82387     -211077.7       17.459157     -211060.24      762.08771      7141.2922      0.53561292   
      5040   305.52484     -211077.93      17.731991     -211060.2       1485.8208      7144.1825      0.53539623   
      5050   302.95051     -211077.73      17.582583     -211060.15     -821.30182      7147.8582      0.53512091   
      5060   295.27568     -211077.25      17.137152     -211060.12      1795.6868      7151.4492      0.5348522    
      5070   303.09955     -211077.67      17.591233     -211060.08     -2106.9344      7155.5357      0.53454675   
      5080   306.61352     -211077.87      17.795176     -211060.07      1377.6444      7158.6843      0.53431165   
      5090   309.5674      -211078.02      17.966612     -211060.06     -1129.3618      7162.1483      0.53405322   
      5100   313.61258     -211078.27      18.201386     -211060.07      1794.6212      7165.3075      0.53381775   
      5110   320.3744      -211078.68      18.593827     -211060.08     -988.40022      7169.4599      0.53350858   
      5120   323.89216     -211078.9       18.79799      -211060.1      -888.56036      7173.1675      0.53323283   
      5130   313.44636     -211078.34      18.191739     -211060.14      366.83404      7176.4617      0.53298806   
      5140   305.05133     -211077.89      17.70451      -211060.19      274.49797      7179.8233      0.53273851   
      5150   290.59712     -211077.11      16.865619     -211060.25      2063.998       7183.7641      0.53244627   
      5160   304.91597     -211078.01      17.696654     -211060.31      72.505508      7188.7807      0.5320747    
      5170   292.78716     -211077.39      16.992724     -211060.4       1498.8531      7194.1175      0.53168      
      5180   299.96634     -211077.89      17.409388     -211060.48     -152.94025      7200.2275      0.53122883   
      5190   308.39556     -211078.5       17.898602     -211060.6       440.05818      7206.2644      0.5307838    
      5200   299.02623     -211078.08      17.354826     -211060.72      326.62512      7212.6064      0.53031708   
      5210   315.11758     -211079.16      18.288733     -211060.87      1425.3426      7219.318       0.52982406   
      5220   306.11322     -211078.79      17.766139     -211061.02     -251.01217      7227.0964      0.52925382   
      5230   309.01685     -211079.14      17.93466      -211061.21      463.88538      7234.8503      0.52868659   
      5240   309.13002     -211079.36      17.941228     -211061.42     -928.14062      7242.7694      0.52810854   
      5250   295.50187     -211078.8       17.15028      -211061.65      535.60286      7250.1191      0.52757318   
      5260   286.16207     -211078.51      16.608218     -211061.9      -854.48593      7257.4301      0.52704171   
      5270   289.94813     -211078.94      16.827953     -211062.12      229.21563      7264.2469      0.52654714   
      5280   283.2936      -211078.76      16.441739     -211062.32     -243.94436      7270.8608      0.52606817   
      5290   279.08442     -211078.68      16.197447     -211062.48     -199.05101      7277.2941      0.5256031    
      5300   278.95097     -211078.78      16.189702     -211062.59     -387.40185      7283.3425      0.52516662   
      5310   286.86775     -211079.33      16.649175     -211062.68     -725.30462      7288.9596      0.52476191   
      5320   278.33915     -211078.89      16.154193     -211062.74      710.20226      7294.0328      0.52439692   
      5330   277.23597     -211078.85      16.090167     -211062.76     -780.21185      7299.4201      0.5240099    
      5340   290.30213     -211079.6       16.848499     -211062.75     -834.7553       7304.3328      0.52365747   
      5350   271.73417     -211078.49      15.770855     -211062.72     -694.56272      7308.6213      0.52335019   
      5360   287.36191     -211079.34      16.677855     -211062.66     -147.96982      7312.3962      0.52308003   
      5370   278.05835     -211078.73      16.137896     -211062.59      495.8531       7316.0728      0.52281715   
      5380   284.00695     -211079         16.48314      -211062.51     -660.38975      7319.869       0.52254602   
      5390   286.55932     -211079.06      16.631274     -211062.43      602.40651      7323.2598      0.52230406   
      5400   274.24769     -211078.27      15.916734     -211062.35     -1303.5484      7326.616       0.52206481   
      5410   281.63368     -211078.62      16.345401     -211062.27     -680.89895      7328.9706      0.52189709   
      5420   276.47754     -211078.23      16.04615      -211062.18     -1294.3398      7330.4278      0.52179334   
      5430   283.86762     -211078.56      16.475054     -211062.08     -167.51862      7330.8857      0.52176074   
      5440   280.45111     -211078.25      16.276767     -211061.97     -1465.6007      7330.9596      0.52175548   
      5450   292.96599     -211078.86      17.003103     -211061.86     -542.36977      7330.0545      0.52181991   
      5460   288.8116      -211078.48      16.761992     -211061.72     -1924.3526      7328.5319      0.52192832   
      5470   286.96999     -211078.24      16.655109     -211061.58      140.58359      7325.7983      0.52212308   
      5480   289.6963      -211078.25      16.813337     -211061.44     -1658.8139      7322.798       0.522337     
      5490   289.20814     -211078.08      16.785005     -211061.3       57.664766      7318.8388      0.52261957   
      5500   298.83901     -211078.51      17.34396      -211061.16     -524.18043      7314.5638      0.52292501   
      5510   290.36925     -211077.9       16.852394     -211061.05     -180.62784      7310.0323      0.52324917   
      5520   288.59524     -211077.68      16.749434     -211060.93     -1362.6269      7305.0791      0.52360397   
      5530   310.96165     -211078.88      18.047532     -211060.83     -1256.2092      7299.16        0.52402857   
      5540   299.92951     -211078.15      17.40725      -211060.75      227.30409      7292.2445      0.52452553   
      5550   289.38967     -211077.45      16.795541     -211060.66      151.74996      7285.4713      0.52501317   
      5560   307.38333     -211078.42      17.839854     -211060.58      143.96107      7278.9183      0.52548582   
      5570   297.75495     -211077.79      17.281044     -211060.51     -589.60245      7272.4484      0.52595332   
      5580   289.84047     -211077.28      16.821705     -211060.45     -530.97325      7265.6755      0.5264436    
      5590   299.61607     -211077.76      17.389059     -211060.38     -808.4861       7258.5011      0.52696394   
      5600   299.73007     -211077.7       17.395675     -211060.31     -575.64841      7250.815       0.52752254   
      5610   307.58194     -211078.09      17.851381     -211060.23      400.61507      7242.7803      0.52810774   
      5620   292.32155     -211077.13      16.965701     -211060.16     -73.55171       7234.9881      0.52867653   
      5630   301.42923     -211077.61      17.494291     -211060.11      412.72326      7227.2588      0.52924193   
      5640   292.57881     -211077.03      16.980632     -211060.05     -542.69498      7219.7407      0.52979304   
      5650   304.88319     -211077.7       17.694751     -211060        -494.91644      7211.9029      0.53036881   
      5660   312.107       -211078.07      18.114006     -211059.96     -763.46557      7203.7069      0.53097224   
      5670   311.74285     -211078.01      18.092871     -211059.92      250.90028      7195.1451      0.53160406   
      5680   320.34782     -211078.47      18.592284     -211059.88      1079.9145      7187.0006      0.53220649   
      5690   320.21602     -211078.44      18.584635     -211059.85      932.92929      7179.885       0.53273393   
      5700   308.9622      -211077.77      17.931488     -211059.84      580.4767       7173.6647      0.53319587   
      5710   310.21643     -211077.84      18.004281     -211059.84      277.40766      7168.0537      0.53361324   
      5720   313.04798     -211078.03      18.168618     -211059.86     -318.71873      7162.5997      0.53401956   
      5730   288.02666     -211076.6       16.716435     -211059.89      1574.3555      7157.2344      0.53441988   
      5740   297.29162     -211077.17      17.254153     -211059.92      408.76919      7152.8023      0.53475103   
      5750   314.26416     -211078.18      18.239202     -211059.94      2372.5617      7149.1952      0.53502083   
      5760   300.1464      -211077.41      17.419838     -211059.99     -608.94244      7147.008       0.53518457   
      5770   296.75715     -211077.26      17.223133     -211060.04      724.03702      7144.9005      0.53534243   
      5780   310.20831     -211078.09      18.003809     -211060.09     -2183.2683      7142.9457      0.53548894   
      5790   308.84981     -211078.1       17.924965     -211060.17      499.19921      7139.7521      0.53572845   
      5800   285.70915     -211076.84      16.581932     -211060.25      547.06277      7136.7439      0.53595427   
      5810   313.59021     -211078.57      18.200087     -211060.37      680.22864      7134.2017      0.53614525   
      5820   300.11103     -211077.92      17.417785     -211060.5       131.24284      7132.1994      0.53629577   
      5830   297.00969     -211077.9       17.23779      -211060.66     -686.55044      7130.2841      0.53643982   
      5840   301.58781     -211078.34      17.503495     -211060.83      947.95994      7128.1474      0.53660063   
      5850   292.81529     -211078.02      16.994356     -211061.03     -14.520467      7126.5389      0.53672174   
      5860   295.23956     -211078.35      17.135056     -211061.21      2438.3616      7125.3646      0.5368102    
      5870   286.90061     -211078.06      16.651082     -211061.4      -154.93866      7125.7151      0.53678379   
      5880   277.13368     -211077.66      16.08423      -211061.57      1797.9836      7126.4392      0.53672925   
      5890   282.21868     -211078.09      16.379353     -211061.72     -1024.1107      7128.1366      0.53660144   
      5900   297.61429     -211079.12      17.27288      -211061.85      400.37609      7129.4537      0.53650231   
      5910   282.45682     -211078.34      16.393174     -211061.95     -933.00851      7130.7934      0.53640151   
      5920   282.50807     -211078.43      16.396148     -211062.04     -466.66643      7131.5525      0.53634442   
      5930   294.93382     -211079.23      17.117312     -211062.11     -529.50722      7131.8038      0.53632552   
      5940   290.15298     -211079.02      16.839842     -211062.18     -796.62609      7131.542       0.53634521   
      5950   283.98936     -211078.71      16.482119     -211062.23     -77.127841      7130.7083      0.53640792   
      5960   297.05982     -211079.52      17.2407       -211062.28     -2057.8941      7129.4867      0.53649983   
      5970   299.04926     -211079.67      17.356163     -211062.31     -43.023268      7127.0646      0.53668215   
      5980   301.23298     -211079.82      17.482901     -211062.34     -1008.3708      7124.3698      0.53688515   
      5990   297.84791     -211079.64      17.286439     -211062.35      892.12454      7121.336       0.53711388   
      6000   285.64107     -211078.93      16.577981     -211062.35     -784.15985      7118.7934      0.53730572   
Loop time of 644.239 on 8 procs for 4000 steps with 450 atoms

Performance: 0.268 ns/day, 89.478 hours/ns, 6.209 timesteps/s, 2.794 katom-step/s
175.8% CPU use with 1 MPI tasks x 8 OpenMP threads

MPI task timing breakdown:
Section |  min time  |  avg time  |  max time  |%varavg| %total
---------------------------------------------------------------
Pair    | 643.66     | 643.66     | 643.66     |   0.0 | 99.91
Neigh   | 0.3147     | 0.3147     | 0.3147     |   0.0 |  0.05
Comm    | 0.11405    | 0.11405    | 0.11405    |   0.0 |  0.02
Output  | 0.01546    | 0.01546    | 0.01546    |   0.0 |  0.00
Modify  | 0.11301    | 0.11301    | 0.11301    |   0.0 |  0.02
Other   |            | 0.02312    |            |       |  0.00

Nlocal:            450 ave         450 max         450 min
Histogram: 1 0 0 0 0 0 0 0 0 0
Nghost:           4669 ave        4669 max        4669 min
Histogram: 1 0 0 0 0 0 0 0 0 0
Neighs:              0 ave           0 max           0 min
Histogram: 1 0 0 0 0 0 0 0 0 0
FullNghs:       205306 ave      205306 max      205306 min
Histogram: 1 0 0 0 0 0 0 0 0 0

Total # of neighbors = 205306
Ave neighs/atom = 456.23556
Neighbor list builds = 84
Dangerous builds = 0
unfix           2

write_data      data.system.after_npt_equil nocoeff
System init for write_data ...
Generated 0 of 6 mixed pair_coeff terms from geometric mixing rule

# ------------------------------------------------------------------
# Stage 3: production
# Continues at the NPT-equilibrated volume. Switch to NVT here instead
# if you want fixed-volume production once the density has converged.
# ------------------------------------------------------------------
fix             3 all npt temp ${Tinit} ${Trun} $(100.0*dt)                         iso ${Patm} ${Patm} $(1000.0*dt)
fix             3 all npt temp 300 ${Trun} $(100.0*dt)                         iso ${Patm} ${Patm} $(1000.0*dt)
fix             3 all npt temp 300 300 $(100.0*dt)                         iso ${Patm} ${Patm} $(1000.0*dt)
fix             3 all npt temp 300 300 0.050000000000000002776                         iso ${Patm} ${Patm} $(1000.0*dt)
fix             3 all npt temp 300 300 0.050000000000000002776                         iso 1.01325 ${Patm} $(1000.0*dt)
fix             3 all npt temp 300 300 0.050000000000000002776                         iso 1.01325 1.01325 $(1000.0*dt)
fix             3 all npt temp 300 300 0.050000000000000002776                         iso 1.01325 1.01325 0.5

dump            1 all custom 100 dump.mace_off23.lammpstrj id type element x y z
dump_modify     1 element H C N O sort id

run             2000                     # 1 ps production (still smoke-test scale)
Generated 0 of 6 mixed pair_coeff terms from geometric mixing rule
Per MPI rank memory allocation (min/avg/max) = 10.73 | 10.73 | 10.73 Mbytes
   Step          Temp          PotEng         KinEng         TotEng         Press          Volume        Density    
      6000   285.64107     -211078.93      16.577981     -211062.35     -784.15985      7118.7934      0.53730572   
      6010   302.01613     -211079.87      17.528353     -211062.34      9.5946962      7118.6454      0.53731689   
      6020   286.42463     -211078.95      16.623457     -211062.33     -636.68064      7118.3733      0.53733742   
      6030   288.01782     -211079.03      16.715922     -211062.31      1351.3871      7117.7581      0.53738387   
      6040   292.26914     -211079.25      16.96266      -211062.28      153.48696      7117.8656      0.53737575   
      6050   279.31213     -211078.47      16.210663     -211062.26      1009.9055      7118.2204      0.53734897   
      6060   293.29672     -211079.23      17.022298     -211062.21     -757.29033      7119.0948      0.53728296   
      6070   282.1186      -211078.52      16.373545     -211062.15     -618.09058      7119.5438      0.53724908   
      6080   296.85055     -211079.29      17.228554     -211062.06     -1009.0351      7119.4197      0.53725844   
      6090   292.78998     -211078.95      16.992888     -211061.96     -2118.0044      7118.4728      0.53732991   
      6100   292.32824     -211078.81      16.966089     -211061.84      494.49301      7116.1848      0.53750268   
      6110   301.97543     -211079.22      17.525991     -211061.69     -861.47866      7113.9381      0.53767243   
      6120   289.27213     -211078.32      16.788719     -211061.53      3270.7964      7111.6673      0.53784411   
      6130   300.33852     -211078.78      17.430988     -211061.35     -1861.5638      7111.1285      0.53788486   
      6140   278.65535     -211077.33      16.172545     -211061.15      879.12731      7110.0217      0.53796859   
      6150   294.40959     -211078.05      17.086886     -211060.96     -2826.2096      7108.7752      0.53806293   
      6160   313.53874     -211078.95      18.1971       -211060.75      1478.3394      7106.0852      0.53826661   
      6170   291.2973      -211077.47      16.906256     -211060.56      949.64982      7103.917       0.5384309    
      6180   313.19604     -211078.6       18.177211     -211060.42      1163.0274      7102.6465      0.53852721   
      6190   321.56899     -211078.96      18.663158     -211060.3      -556.65584      7102.0623      0.53857151   
      6200   307.44042     -211078.07      17.843167     -211060.22     -1692.5608      7101.0439      0.53864874   
      6210   317.98112     -211078.63      18.454926     -211060.17     -619.8239       7098.9894      0.53880464   
      6220   316.82008     -211078.52      18.387542     -211060.13     -2066.605       7096.1502      0.53902021   
      6230   323.45208     -211078.89      18.772449     -211060.12      507.48312      7092.2396      0.53931742   
      6240   330.85353     -211079.33      19.202013     -211060.13     -909.76963      7088.2924      0.53961775   
      6250   307.25232     -211078         17.83225      -211060.16      986.24496      7084.0153      0.53994355   
      6260   304.93559     -211077.91      17.697792     -211060.21     -316.27638      7080.1676      0.54023698   
      6270   309.637       -211078.23      17.970652     -211060.26     -275.64663      7076.0883      0.54054842   
      6280   301.25113     -211077.81      17.483954     -211060.32     -262.36944      7071.7379      0.54088096   
      6290   302.35232     -211077.94      17.547865     -211060.39      935.26939      7067.0634      0.54123872   
      6300   308.4371      -211078.36      17.901012     -211060.46      2263.9734      7063.1747      0.54153671   
      6310   313.59866     -211078.74      18.200578     -211060.53      1871.2261      7060.8713      0.54171337   
      6320   307.22978     -211078.45      17.830942     -211060.62      554.59376      7060.0578      0.54177579   
      6330   304.54649     -211078.37      17.67521      -211060.7      -348.79317      7059.7735      0.54179761   
      6340   298.36673     -211078.09      17.31655      -211060.77     -256.51926      7059.3025      0.54183375   
      6350   299.55818     -211078.23      17.385699     -211060.84      1443.0604      7058.8389      0.54186934   
      6360   300.38749     -211078.34      17.43383      -211060.9       1594.5847      7059.3601      0.54182933   
      6370   298.14735     -211078.26      17.303818     -211060.96      1077.7906      7061.2416      0.54168496   
      6380   299.52158     -211078.4       17.383575     -211061.01     -61.11362       7063.9482      0.54147741   
      6390   301.17347     -211078.53      17.479447     -211061.05     -1777.6925      7066.6388      0.54127124   
      6400   301.59205     -211078.6       17.503741     -211061.1      -980.42577      7068.1238      0.54115753   
      6410   301.64452     -211078.65      17.506786     -211061.14     -197.55664      7068.7946      0.54110617   
      6420   294.84542     -211078.29      17.112181     -211061.18      2839.7564      7069.5456      0.54104869   
      6430   281.22777     -211077.55      16.321843     -211061.22      2100.8959      7072.1413      0.54085011   
      6440   297.78063     -211078.54      17.282534     -211061.26      2500.5538      7076.5873      0.54051031   
      6450   298.83439     -211078.64      17.343692     -211061.29     -949.83814      7082.5817      0.54005284   
      6460   290.42922     -211078.19      16.855874     -211061.33      449.61313      7088.302       0.53961702   
      6470   285.4447      -211077.92      16.566584     -211061.35     -426.94661      7094.0736      0.53917799   
      6480   312.13763     -211079.49      18.115783     -211061.38      1926.8222      7099.9113      0.53873467   
      6490   311.28748     -211079.48      18.066442     -211061.41      1901.4176      7107.1487      0.53818606   
      6500   301.66675     -211078.95      17.508076     -211061.45      598.9496       7115.9681      0.53751904   
      6510   296.71296     -211078.7       17.220569     -211061.48     -13.935085      7125.4893      0.5368008    
      6520   298.06371     -211078.8       17.298963     -211061.5      -2216.717       7134.87        0.53609504   
      6530   307.02578     -211079.35      17.819102     -211061.53      718.72852      7142.9965      0.53548513   
      6540   288.64181     -211078.33      16.752137     -211061.58     -568.76121      7151.2179      0.53486951   
      6550   303.49575     -211079.25      17.614227     -211061.64      1928.4992      7159.4751      0.53425263   
      6560   308.71343     -211079.62      17.91705      -211061.71     -1871.3043      7168.6247      0.53357074   
      6570   304.14519     -211079.45      17.651919     -211061.8       524.65689      7176.9468      0.53295203   
      6580   298.84518     -211079.26      17.344318     -211061.92     -1580.189       7185.2389      0.53233698   
      6590   295.69467     -211079.21      17.16147      -211062.05      674.48458      7192.7756      0.53177919   
      6600   297.44046     -211079.46      17.262791     -211062.2       581.30673      7200.7072      0.53119343   
      6610   294.02889     -211079.42      17.064791     -211062.35      569.39571      7209.2426      0.53056453   
      6620   292.28489     -211079.49      16.963574     -211062.53      427.64001      7218.3016      0.52989867   
      6630   290.54307     -211079.56      16.862482     -211062.7      -1457.502       7227.5027      0.52922407   
      6640   282.37507     -211079.26      16.388429     -211062.87      255.22548      7235.815       0.52861611   
      6650   278.39835     -211079.19      16.157629     -211063.03     -1484.8799      7243.8753      0.52802791   
      6660   276.52383     -211079.23      16.048836     -211063.18      1163.495       7251.1342      0.52749932   
      6670   269.76289     -211078.94      15.656446     -211063.29     -867.88259      7258.9051      0.52693462   
      6680   283.79261     -211079.83      16.4707       -211063.36     -373.24797      7266.3425      0.52639528   
      6690   270.97407     -211079.13      15.72674      -211063.41     -2427.8319      7273.2206      0.52589748   
      6700   280.4527      -211079.69      16.276859     -211063.41     -1246.4518      7278.5174      0.52551477   
      6710   279.83876     -211079.63      16.241227     -211063.39     -1368.9033      7282.5823      0.52522144   
      6720   269.71859     -211079.01      15.653875     -211063.36      406.26898      7285.7418      0.52499368   
      6730   271.9648      -211079.07      15.78424      -211063.29      27.129684      7288.9979      0.52475915   
      6740   261.88516     -211078.39      15.19924      -211063.19      99.255033      7292.3474      0.52451813   
      6750   265.89661     -211078.5       15.432055     -211063.07     -193.34983      7295.6948      0.52427746   
      6760   276.29862     -211078.94      16.035765     -211062.9      -238.55164      7298.8696      0.52404942   
      6770   279.23055     -211078.92      16.205928     -211062.71      52.202649      7301.9347      0.52382944   
      6780   286.28264     -211079.13      16.615216     -211062.52     -1096.1251      7304.8472      0.52362059   
      6790   281.42644     -211078.64      16.333373     -211062.31      620.20049      7307.2053      0.52345161   
      6800   286.29766     -211078.75      16.616088     -211062.13     -442.11408      7309.7219      0.5232714    
      6810   285.99075     -211078.56      16.598275     -211061.96      675.83365      7312.1741      0.52309591   
      6820   288.73245     -211078.57      16.757398     -211061.81     -1498.045       7314.8336      0.52290573   
      6830   289.48216     -211078.48      16.800909     -211061.68     -244.56631      7316.6184      0.52277817   
      6840   292.98858     -211078.57      17.004414     -211061.56     -1769.3223      7317.9379      0.52268391   
      6850   302.64211     -211079.02      17.564684     -211061.45     -39.776522      7318.1275      0.52267037   
      6860   282.14463     -211077.73      16.375055     -211061.35     -873.65967      7318.0938      0.52267278   
      6870   292.75908     -211078.25      16.991094     -211061.26     -22.460616      7317.4089      0.52272169   
      6880   288.05415     -211077.88      16.718031     -211061.17      384.70096      7316.6793      0.52277382   
      6890   292.49598     -211078.06      16.975825     -211061.08      770.99722      7316.1374      0.52281254   
      6900   285.62432     -211077.57      16.577009     -211060.99      1865.3304      7316.3543      0.52279704   
      6910   301.13992     -211078.39      17.4775       -211060.91     -37.954741      7317.8203      0.52269231   
      6920   303.61445     -211078.44      17.621116     -211060.82      1941.6062      7319.7488      0.5225546    
      6930   303.01202     -211078.31      17.586153     -211060.73     -690.2976       7322.9379      0.52232702   
      6940   302.66838     -211078.21      17.566208     -211060.64      2573.1205      7326.2926      0.52208785   
      6950   299.97297     -211077.96      17.409773     -211060.55     -1445.8098      7331.1629      0.52174102   
      6960   298.9666      -211077.82      17.351365     -211060.46      1241.217       7335.5776      0.52142702   
      6970   290.3187      -211077.23      16.84946      -211060.38     -2481.2084      7340.3614      0.5210872    
      6980   308.19612     -211078.17      17.887027     -211060.29      555.45178      7343.7201      0.52084888   
      6990   285.5206      -211076.77      16.570989     -211060.2      -1062.2009      7347.0298      0.52061425   
      7000   319.63924     -211078.67      18.55116      -211060.11     -557.57567      7349.6662      0.52042749   
      7010   297.40727     -211077.29      17.260865     -211060.03     -263.67258      7351.7912      0.52027707   
      7020   293.58293     -211077         17.038909     -211059.96     -1421.4181      7353.4778      0.52015774   
      7030   310.13404     -211077.89      17.999499     -211059.89     -84.338808      7354.2426      0.52010364   
      7040   303.55611     -211077.45      17.617731     -211059.83     -2338.7249      7354.474       0.52008728   
      7050   303.08811     -211077.36      17.590569     -211059.77      1170.4959      7353.3312      0.52016811   
      7060   291.98948     -211076.66      16.946428     -211059.71     -1305.7648      7352.5555      0.52022299   
      7070   314.55602     -211077.9       18.256141     -211059.65      2206.8351      7351.3224      0.52031025   
      7080   285.73342     -211076.16      16.58334      -211059.58     -1694.7332      7351.2743      0.52031365   
      7090   303.41388     -211077.13      17.609476     -211059.52      77.262741      7350.3213      0.52038111   
      7100   295.57049     -211076.6       17.154263     -211059.44     -3273.8571      7348.9041      0.52048147   
      7110   298.39332     -211076.7       17.318094     -211059.38     -348.40512      7345.2011      0.52074386   
      7120   288.81857     -211076.05      16.762396     -211059.29      273.71209      7340.9481      0.52104555   
      7130   299.71481     -211076.59      17.39479      -211059.2       534.09417      7336.9635      0.52132853   
      7140   295.51771     -211076.23      17.151199     -211059.08     -917.52018      7333.2733      0.52159087   
      7150   291.76417     -211075.9       16.933352     -211058.97     -3354.5842      7328.7866      0.52191019   
      7160   321.10335     -211077.48      18.636134     -211058.84     -1616.6419      7321.7227      0.52241372   
      7170   291.74742     -211075.66      16.93238      -211058.73     -3437.6374      7312.8722      0.52304598   
      7180   306.39229     -211076.38      17.782336     -211058.6       1790.0637      7301.7472      0.52384289   
      7190   307.4793      -211076.31      17.845424     -211058.47     -1746.9062      7291.1478      0.52460442   
      7200   309.92033     -211076.33      17.987096     -211058.35      3554.0698      7279.9562      0.5254109    
      7210   305.846       -211075.97      17.750631     -211058.22     -2162.3732      7270.4886      0.5260951    
      7220   318.87302     -211076.65      18.50669      -211058.14      1372.8843      7260.1979      0.52684079   
      7230   315.82939     -211076.38      18.330045     -211058.05     -2114.1012      7250.1242      0.5275728    
      7240   326.51728     -211076.96      18.950346     -211058.01     -173.63552      7238.8709      0.52839295   
      7250   314.73042     -211076.24      18.266263     -211057.98      421.65362      7227.1915      0.52924686   
      7260   301.07059     -211075.44      17.473476     -211057.97     -707.55435      7215.6236      0.53009533   
      7270   315.8356      -211076.29      18.330405     -211057.96      2510.7528      7203.8849      0.53095912   
      7280   299.4405      -211075.35      17.37887      -211057.98     -2846.9896      7193.1422      0.53175209   
      7290   312.34569     -211076.14      18.127858     -211058.01      2330.0293      7181.1488      0.53264018   
      7300   309.045       -211075.99      17.936293     -211058.05     -3643.0678      7169.728       0.53348863   
      7310   323.61935     -211076.9       18.782157     -211058.12      2348.2623      7156.6797      0.53446131   
      7320   316.52333     -211076.57      18.37032      -211058.2      -2908.3305      7144.2938      0.53538789   
      7330   319.0109      -211076.84      18.514693     -211058.33      1753.3523      7130.6988      0.53640863   
      7340   305.80286     -211076.21      17.748127     -211058.46     -813.46303      7117.7557      0.53738405   
      7350   310.27995     -211076.66      18.007967     -211058.65      1197.892       7104.6239      0.53837732   
      7360   308.33817     -211076.78      17.89527      -211058.88      1442.0423      7092.2441      0.53931708   
      7370   302.61308     -211076.73      17.562999     -211059.17      84.862794      7080.7621      0.54019162   
      7380   306.70148     -211077.29      17.80028      -211059.49      1071.3837      7069.5377      0.54104929   
      7390   303.59188     -211077.44      17.619806     -211059.82     -2356.9544      7058.5958      0.541888     
      7400   305.88504     -211077.88      17.752896     -211060.12      12.852082      7046.2637      0.54283639   
      7410   293.93608     -211077.43      17.059405     -211060.37     -1795.3409      7033.4008      0.54382915   
      7420   296.74949     -211077.76      17.222689     -211060.54      1887.4721      7019.664       0.54489337   
      7430   290.37998     -211077.5       16.853017     -211060.65      89.050858      7006.879       0.5458876    
      7440   295.21906     -211077.86      17.133866     -211060.73      1119.3353      6994.5455      0.54685017   
      7450   285.40395     -211077.34      16.564219     -211060.77     -1379.4344      6982.8121      0.54776905   
      7460   299.95507     -211078.23      17.408734     -211060.82     -1660.8678      6970.2934      0.54875285   
      7470   293.32499     -211077.88      17.023939     -211060.85     -2654.546       6956.3777      0.54985059   
      7480   288.3114      -211077.61      16.732961     -211060.88     -158.39257      6940.7533      0.55108836   
      7490   291.54444     -211077.79      16.920599     -211060.87      798.65219      6924.8121      0.55235699   
      7500   294.64423     -211077.96      17.100504     -211060.86      2177.2192      6909.5511      0.55357698   
      7510   289.60413     -211077.65      16.807988     -211060.84      1125.077       6895.7131      0.55468786   
      7520   296.90974     -211078.06      17.23199      -211060.83     -1010.0657      6882.6778      0.5557384    
      7530   291.90326     -211077.77      16.941424     -211060.83     -1979.4575      6868.9403      0.55684985   
      7540   285.09174     -211077.38      16.546099     -211060.84     -2183.3995      6853.7765      0.55808187   
      7550   299.89186     -211078.22      17.405066     -211060.82      148.65504      6837.243       0.55943139   
      7560   296.54056     -211077.99      17.210563     -211060.78      1015.5564      6820.7679      0.56078266   
      7570   287.61394     -211077.41      16.692482     -211060.72      1921.4116      6805.2607      0.56206053   
      7580   293.81607     -211077.7       17.05244      -211060.65     -207.32019      6791.0667      0.56323529   
      7590   306.62858     -211078.38      17.79605      -211060.58     -1092.875       6777.0737      0.56439823   
      7600   285.07354     -211077.05      16.545042     -211060.51     -1506.5554      6762.404       0.56562258   
      7610   309.07749     -211078.37      17.938179     -211060.43     -926.43151      6746.9327      0.5669196    
      7620   297.0539      -211077.58      17.240356     -211060.34      117.54613      6730.8958      0.56827033   
      7630   290.38843     -211077.08      16.853507     -211060.23      1350.0075      6715.145       0.56960325   
      7640   308.6358      -211078.05      17.912544     -211060.14      578.95244      6700.3042      0.57086488   
      7650   288.77284     -211076.79      16.759742     -211060.03      1224.6707      6686.1243      0.57207557   
      7660   304.32936     -211077.6       17.662608     -211059.94      1310.3926      6672.9678      0.57320348   
      7670   302.79814     -211077.42      17.573739     -211059.84     -543.34793      6660.6668      0.57426208   
      7680   310.40524     -211077.77      18.015239     -211059.76     -368.5405       6648.435       0.57531861   
      7690   305.47241     -211077.42      17.728948     -211059.69     -1679.4799      6635.8725      0.57640775   
      7700   309.67369     -211077.58      17.972781     -211059.61      1795.823       6622.9167      0.57753533   
      7710   315.09188     -211077.81      18.287241     -211059.52      47.498115      6610.9297      0.57858252   
      7720   307.91404     -211077.32      17.870655     -211059.45      1870.2828      6599.6338      0.57957282   
      7730   302.48133     -211076.95      17.555352     -211059.39     -441.48163      6589.4129      0.5804718    
      7740   308.16567     -211077.22      17.885259     -211059.33      48.761811      6579.3481      0.58135978   
      7750   309.97959     -211077.3       17.990535     -211059.31     -812.01307      6569.3278      0.58224654   
      7760   305.01591     -211076.98      17.702454     -211059.28     -254.32182      6558.9952      0.58316377   
      7770   308.21252     -211077.15      17.887978     -211059.26      546.89027      6548.7246      0.58407837   
      7780   315.16927     -211077.54      18.291733     -211059.25      64.437235      6538.8581      0.58495968   
      7790   320.49569     -211077.85      18.600866     -211059.25      1651.3615      6529.4965      0.58579836   
      7800   318.75094     -211077.78      18.499605     -211059.28      1257.226       6521.2495      0.58653919   
      7810   316.52376     -211077.7       18.370344     -211059.33      389.11593      6514.1043      0.58718255   
      7820   314.00103     -211077.64      18.223931     -211059.42     -933.69382      6507.3669      0.58779049   
      7830   310.99205     -211077.57      18.049296     -211059.52     -186.95149      6500.3353      0.58842632   
      7840   319.66679     -211078.2       18.552759     -211059.65      1835.2653      6493.4825      0.58904731   
      7850   306.37683     -211077.59      17.781439     -211059.81      2261.6816      6487.907       0.58955352   
      7860   311.62228     -211078.08      18.085873     -211059.99      921.6776       6483.9396      0.58991425   
      7870   305.32781     -211077.93      17.720556     -211060.21     -614.22626      6480.6207      0.59021636   
      7880   292.35369     -211077.41      16.967566     -211060.44     -231.12051      6477.0723      0.5905397    
      7890   292.04632     -211077.6       16.949727     -211060.65      611.1569       6473.4588      0.59086935   
      7900   299.81634     -211078.26      17.400682     -211060.86     -32.621482      6470.1344      0.59117294   
      7910   298.09616     -211078.35      17.300847     -211061.05     -204.02535      6466.9157      0.59146718   
      7920   293.29848     -211078.24      17.0224       -211061.22     -209.36707      6463.5326      0.59177676   
      7930   293.7516      -211078.41      17.048698     -211061.36     -82.743261      6460.1374      0.59208778   
      7940   298.02352     -211078.76      17.296631     -211061.47      851.48713      6456.8235      0.59239165   
      7950   301.36219     -211079.04      17.4904       -211061.55     -995.82844      6453.966       0.59265394   
      7960   300.62204     -211079.07      17.447443     -211061.62     -227.99472      6450.86        0.59293929   
      7970   294.81928     -211078.79      17.110664     -211061.68     -1679.734       6447.4378      0.59325402   
      7980   293.15019     -211078.73      17.013794     -211061.72      350.1529       6443.4274      0.59362326   
      7990   295.76427     -211078.91      17.165509     -211061.74     -1326.0953      6439.4188      0.5939928    
      8000   294.62814     -211078.86      17.099571     -211061.76     -1863.7083      6434.8473      0.59441479   
Loop time of 299.957 on 8 procs for 2000 steps with 450 atoms

Performance: 0.288 ns/day, 83.321 hours/ns, 6.668 timesteps/s, 3.000 katom-step/s
175.3% CPU use with 1 MPI tasks x 8 OpenMP threads

MPI task timing breakdown:
Section |  min time  |  avg time  |  max time  |%varavg| %total
---------------------------------------------------------------
Pair    | 299.7      | 299.7      | 299.7      |   0.0 | 99.91
Neigh   | 0.12708    | 0.12708    | 0.12708    |   0.0 |  0.04
Comm    | 0.054558   | 0.054558   | 0.054558   |   0.0 |  0.02
Output  | 0.013137   | 0.013137   | 0.013137   |   0.0 |  0.00
Modify  | 0.055726   | 0.055726   | 0.055726   |   0.0 |  0.02
Other   |            | 0.01143    |            |       |  0.00

Nlocal:            450 ave         450 max         450 min
Histogram: 1 0 0 0 0 0 0 0 0 0
Nghost:           4919 ave        4919 max        4919 min
Histogram: 1 0 0 0 0 0 0 0 0 0
Neighs:              0 ave           0 max           0 min
Histogram: 1 0 0 0 0 0 0 0 0 0
FullNghs:       227324 ave      227324 max      227324 min
Histogram: 1 0 0 0 0 0 0 0 0 0

Total # of neighbors = 227324
Ave neighs/atom = 505.16444
Neighbor list builds = 40
Dangerous builds = 0

write_data      data.system.after_production nocoeff
System init for write_data ...
Generated 0 of 6 mixed pair_coeff terms from geometric mixing rule
Total wall time: 0:22:29
