ITEM: TIMESTEP
6000
ITEM: NUMBER OF ATOMS
450
ITEM: BOX BOUNDS pp pp pp
-9.9569085915892863e-01 1.7920690859158732e+01
-9.9569085915892863e-01 1.7920690859158732e+01
-9.9569085915892863e-01 1.7920690859158732e+01
ITEM: ATOMS id type element x y z
1 2 C 7.73057 3.45705 2.82738
2 2 C 7.78227 2.00477 3.34713
3 4 O 9.03408 1.47102 3.70373
4 1 H 7.59971 4.23248 3.60155
5 1 H 8.61679 3.64671 2.24421
6 1 H 6.91682 3.5833 2.13158
7 1 H 7.43007 1.30377 2.56362
8 1 H 7.1374 1.82234 4.20702
9 1 H 9.67253 2.11295 3.99263
10 2 C 12.6516 11.3235 16.7882
11 2 C 11.6248 12.1478 17.5855
12 4 O 11.5205 11.5765 -0.0152702
13 1 H 12.2332 10.3722 16.4445
14 1 H 12.9557 11.8518 15.8871
15 1 H 13.4852 11.1992 17.48
16 1 H 10.6615 12.0172 17.1256
17 1 H 11.864 13.1843 17.6267
18 1 H 12.0615 10.7766 0.0106743
19 2 C 11.1626 3.88089 0.851927
20 2 C 10.0382 4.81767 0.392545
21 4 O 10.7439 5.85065 -0.352854
22 1 H 11.9766 4.44052 1.2345
23 1 H 10.7787 3.2878 1.69355
24 1 H 11.4232 3.3077 -0.00480436
25 1 H 9.5121 5.23161 1.24343
26 1 H 9.3608 4.21057 -0.243208
27 1 H 10.0915 6.36529 -0.80056
28 2 C 16.1243 6.34805 11.0423
29 2 C 16.5028 7.81274 10.9794
30 4 O 17.3715 8.05379 9.83676
31 1 H 16.9667 5.72988 11.3553
32 1 H 15.3758 6.12307 11.8212
33 1 H 15.6436 5.99255 10.1529
34 1 H 17.0452 8.16163 11.862
35 1 H 15.6052 8.38748 10.8893
36 1 H 17.8034 8.88637 10.0178
37 2 C 2.24949 17.1448 12.7073
38 2 C 2.55697 16.9963 14.1919
39 4 O 3.44725 17.7164 14.6682
40 1 H 3.13604 17.5233 12.1874
41 1 H 1.78488 16.2383 12.2424
42 1 H 1.50092 -0.915607 12.5368
43 1 H 1.91413 16.4424 14.8368
44 1 H 15.3304 17.7603 -0.220854
45 1 H 5.25689 3.20656 9.57889
46 2 C 7.60817 15.1066 6.20233
47 2 C 6.83085 14.3311 5.11477
48 4 O 6.08478 13.1337 5.50016
49 1 H 8.15333 15.9143 5.70404
50 1 H 6.91078 15.5624 6.9279
51 1 H 8.28551 14.4638 6.75317
52 1 H 7.50583 13.9969 4.32813
53 1 H 6.15505 15.0255 4.60103
54 1 H 5.32609 13.4219 6.04201
55 2 C 15.5709 3.35388 13.2412
56 2 C 14.3534 4.11568 13.7774
57 4 O 14.531 4.39651 15.2019
58 1 H 15.5604 2.31215 13.5477
59 1 H 15.6067 3.39643 12.193
60 1 H 16.4067 3.85255 13.6723
61 1 H 13.4999 3.47567 13.5831
62 1 H 14.3239 5.04168 13.2614
63 1 H 13.6668 4.29051 15.5756
64 2 C 9.56972 11.8602 12.415
65 2 C 9.44023 11.4681 10.9527
66 4 O 9.00561 10.1319 10.7558
67 1 H 10.1992 11.1565 12.9069
68 1 H 10.0316 12.871 12.4714
69 1 H 8.577 11.9048 12.9013
70 1 H 10.3754 11.6866 10.4317
71 1 H 8.65029 12.1193 10.5365
72 1 H 9.7622 9.56527 10.6089
73 2 C 5.63919 4.12585 6.12165
74 2 C 4.33515 4.70801 6.61052
75 4 O 3.29873 4.07455 5.86515
76 1 H 5.6995 4.20985 5.0353
77 1 H 6.57549 4.5567 6.43082
78 1 H 5.7261 3.08353 6.41539
79 1 H 4.29567 5.79413 6.45679
80 1 H 4.25663 4.52252 7.69853
81 1 H 3.69046 3.26714 5.52345
82 2 C 5.80349 9.32683 12.343
83 2 C 5.49254 10.0363 13.6557
84 4 O 4.08998 9.8249 13.9957
85 1 H 5.30087 8.35095 12.417
86 1 H 5.35626 9.80212 11.4749
87 1 H 6.85206 9.1902 12.1066
88 1 H 5.65017 11.0947 13.5214
89 1 H 6.0575 9.78906 14.5302
90 1 H 4.05392 10.5457 14.6534
91 2 C 10.7355 3.89876 14.2082
92 2 C 10.5993 4.52739 15.5926
93 4 O 11.923 4.32758 16.276
94 1 H 10.6276 2.7952 14.1345
95 1 H 10.0965 4.39649 13.4754
96 1 H 11.7045 4.06302 13.7299
97 1 H 9.98322 3.94268 16.1576
98 1 H 10.3514 5.51787 15.4945
99 1 H 11.6658 4.85771 17.0815
100 2 C 5.4649 15.6527 11.3618
101 2 C 5.65916 14.7577 12.6119
102 4 O 6.78447 15.152 13.3807
103 1 H 6.23923 15.5163 10.5877
104 1 H 4.48945 15.4975 10.9702
105 1 H 5.45602 16.7146 11.5846
106 1 H 5.9991 13.8002 12.229
107 1 H 4.78795 14.7742 13.2445
108 1 H 6.77453 16.1041 13.4926
109 2 C 3.43766 16.4904 4.99912
110 2 C 2.17085 16.5963 5.81889
111 4 O 2.04256 15.4344 6.54765
112 1 H 4.21747 16.811 5.6781
113 1 H 3.5082 15.5225 4.52225
114 1 H 3.41615 17.221 4.14976
115 1 H 1.32008 16.7189 5.11817
116 1 H 2.22539 17.4469 6.45613
117 1 H 1.85252 14.6609 5.92955
118 2 C 2.22953 8.95554 10.3433
119 2 C 1.18887 10.0962 10.2003
120 4 O 0.122386 10.095 11.1588
121 1 H 1.68204 8.03187 10.5954
122 1 H 2.75189 9.01041 9.41169
123 1 H 2.9139 9.16068 11.1604
124 1 H 0.749258 10.0665 9.2045
125 1 H 1.75693 11.0383 10.2785
126 1 H 0.47958 10.3377 12.025
127 2 C 6.76831 -0.500109 17.077
128 2 C 7.35035 -0.0198828 15.7607
129 4 O 6.93308 -0.803365 14.6083
130 1 H 7.53393 -0.368384 17.8987
131 1 H 5.88082 0.0359679 17.3883
132 1 H 6.55143 17.3904 16.8902
133 1 H 8.4612 -0.0517594 15.7707
134 1 H 7.06671 1.02072 15.5313
135 1 H 5.98819 -0.973359 14.7558
136 2 C 9.96227 10.5071 2.89134
137 2 C 8.86255 11.5057 2.65829
138 4 O 9.03244 12.0949 1.36422
139 1 H 10.9272 10.9509 3.09299
140 1 H 9.64969 9.79364 3.70942
141 1 H 10.0793 9.85117 2.03547
142 1 H 8.96179 12.3313 3.38104
143 1 H 7.87408 11.1241 2.65393
144 1 H 9.49888 11.5548 0.730428
145 2 C 7.70695 15.6649 2.00053
146 2 C 8.00615 16.9294 2.80046
147 4 O 9.14883 17.5188 2.08537
148 1 H 6.82763 15.131 2.29686
149 1 H 7.53187 15.9169 0.97092
150 1 H 8.64702 15.0523 2.13164
151 1 H 8.22118 16.7615 3.86839
152 1 H 7.21456 17.6688 2.69606
153 1 H 9.13221 -0.516391 2.44919
154 2 C -0.596811 0.51821 14.838
155 2 C 0.665941 1.0773 15.4013
156 4 O 1.4212 1.72901 14.4227
157 1 H -0.395011 -0.424179 14.3459
158 1 H 17.5983 0.234825 15.6178
159 1 H 17.797 1.20824 14.1634
160 1 H 1.24912 0.259628 15.8567
161 1 H 0.459297 1.74934 16.2316
162 1 H 2.33247 1.44078 14.4617
163 2 C -0.919615 10.292 6.22401
164 2 C -0.126493 9.03047 6.29747
165 4 O -0.625756 8.14607 5.26016
166 1 H 16.9322 10.1114 6.29158
167 1 H -0.598466 11.0404 6.94783
168 1 H -0.799859 10.8013 5.26344
169 1 H -0.28203 8.49859 7.24312
170 1 H 0.941408 9.22854 6.17534
171 1 H -0.590608 8.60618 4.40942
172 2 C 14.1949 7.97114 1.32101
173 2 C 13.4728 7.14144 2.33172
174 4 O 12.06 7.37825 2.50842
175 1 H 13.7603 7.6893 0.336703
176 1 H 14.0366 9.05324 1.46922
177 1 H 15.2133 7.67228 1.28308
178 1 H 13.9617 7.05357 3.30801
179 1 H 13.572 6.09347 1.98934
180 1 H 11.5967 7.00682 1.72344
181 2 C 17.2587 3.39281 2.83681
182 2 C -0.24386 4.02405 3.06205
183 4 O -0.467801 5.24991 3.82921
184 1 H 16.6055 4.1028 2.28359
185 1 H 17.1488 2.47172 2.18928
186 1 H 16.7239 3.00078 3.71377
187 1 H 0.189265 4.24436 2.0813
188 1 H 0.34305 3.34215 3.61364
189 1 H 17.4788 5.38447 3.92613
190 2 C 8.75359 -0.655775 7.81577
191 2 C 7.64632 0.174554 8.51951
192 4 O 7.07302 1.22838 7.79492
193 1 H 8.584 17.1922 7.92819
194 1 H 8.73799 -0.541655 6.72823
195 1 H 9.75683 -0.398987 8.14385
196 1 H 8.01174 0.521036 9.44744
197 1 H 6.82231 -0.506172 8.71056
198 1 H 7.27129 2.08467 8.17109
199 2 C 11.2649 17.7881 13.9453
200 2 C 10.2748 16.7695 13.3196
201 4 O 10.9038 15.516 12.9855
202 1 H 10.8665 -0.135821 14.05
203 1 H 11.5717 17.4066 14.9184
204 1 H 12.0249 17.7978 13.1513
205 1 H 9.86594 17.2256 12.42
206 1 H 9.43286 16.5424 13.991
207 1 H 11.7222 15.4535 13.4611
208 2 C 5.45129 9.0566 2.89037
209 2 C 4.67694 9.79418 3.96807
210 4 O 3.29585 9.93058 3.61955
211 1 H 5.49764 9.71406 2.00972
212 1 H 6.44402 8.74124 3.20103
213 1 H 4.94619 8.14621 2.57581
214 1 H 5.0852 10.7886 4.06083
215 1 H 4.79127 9.23852 4.93462
216 1 H 2.99053 9.03545 3.3905
217 2 C -0.417918 7.75646 14.3975
218 2 C 17.6781 6.84909 15.34
219 4 O 16.3749 7.45183 15.5154
220 1 H 17.9176 8.06309 13.5357
221 1 H -0.063165 8.63247 14.9059
222 1 H 0.411701 7.23693 14.0406
223 1 H -0.705316 6.71891 16.2796
224 1 H 17.4041 5.87309 15.0208
225 1 H 16.3724 7.86606 16.3832
226 2 C 15.1409 6.307 7.49432
227 2 C 14.9819 5.80265 6.08847
228 4 O 16.0944 6.28327 5.19886
229 1 H 15.9333 5.81359 7.99287
230 1 H 15.3301 7.38148 7.46863
231 1 H 14.1388 6.12433 7.93002
232 1 H 14.0461 6.12769 5.6347
233 1 H 15.0742 4.70028 6.12677
234 1 H 16.5544 7.08712 5.48578
235 2 C 17.7729 17.4179 0.438852
236 2 C 16.6974 16.2998 0.0328385
237 4 O 15.3499 16.8618 0.147283
238 1 H 17.7275 -0.59986 -0.253316
239 1 H 17.7674 17.7336 1.48147
240 1 H -0.177621 16.9048 0.35211
241 1 H 16.7132 15.4401 0.757698
242 1 H 16.9689 15.7743 -0.908663
243 1 H 0.315642 4.94232 5.18606
244 2 C 12.4735 15.3141 4.5479
245 2 C 11.523 14.1267 4.77651
246 4 O 11.2312 14.0319 6.23814
247 1 H 12.5619 15.9449 3.75301
248 1 H 12.284 15.9732 5.43585
249 1 H 13.5679 14.9684 4.67233
250 1 H 11.8196 13.2526 4.38359
251 1 H 10.6031 14.4435 4.35366
252 1 H 11.5377 13.1255 6.30449
253 2 C 2.02453 5.42988 17.4633
254 2 C 1.15048 4.20622 17.3519
255 4 O 0.43793 4.28243 16.1376
256 1 H 3.01495 5.42701 16.9635
257 1 H 1.43461 6.23865 17.0053
258 1 H 2.17522 5.66002 -0.382344
259 1 H 0.464975 4.23026 -0.715902
260 1 H 1.82255 3.36463 17.3222
261 1 H -0.217571 3.61888 16.0638
262 2 C -0.989041 14.6659 4.15599
263 2 C 0.408201 14.5554 3.52944
264 4 O 1.30805 13.8789 4.34318
265 1 H 17.4196 13.6796 4.25699
266 1 H -0.926538 14.9778 5.15934
267 1 H 17.3583 15.3599 3.5637
268 1 H 0.744187 15.5531 3.297
269 1 H 0.404915 14.0456 2.55623
270 1 H 1.91925 13.4207 3.73736
271 2 C 14.3333 0.386769 15.763
272 2 C 13.977 0.939901 17.0836
273 4 O 15.0889 1.1196 17.9103
274 1 H 14.6972 -0.618989 15.6464
275 1 H 13.4571 0.422787 15.098
276 1 H 15.1051 1.02499 15.3588
277 1 H 13.2571 0.283953 17.5698
278 1 H 13.4568 1.85907 16.9151
279 1 H 15.6717 1.8067 17.5923
280 2 C 10.649 0.490472 10.4897
281 2 C 11.212 1.90575 10.4322
282 4 O 10.3792 2.81189 11.1471
283 1 H 9.64187 0.428475 10.0848
284 1 H 11.3 -0.237569 9.99043
285 1 H 10.5832 0.233093 11.5387
286 1 H 11.3681 2.20554 9.40079
287 1 H 12.167 1.96047 10.9534
288 1 H 9.50766 2.87044 10.6894
289 2 C 7.27795 5.82733 9.42611
290 2 C 8.39782 4.81903 9.6724
291 4 O 7.98113 3.46357 9.5969
292 1 H 6.37971 5.57634 9.9943
293 1 H 7.61171 6.81833 9.79093
294 1 H 7.0252 5.95512 8.37704
295 1 H 8.8144 5.04674 10.6714
296 1 H 9.24866 4.94208 9.03279
297 1 H 7.20799 3.35038 10.1535
298 2 C 13.3763 8.82013 5.2943
299 2 C 13.4387 10.2386 5.88784
300 4 O 12.1323 10.8316 5.81595
301 1 H 14.3717 8.38765 5.11036
302 1 H 12.8992 8.11879 5.92965
303 1 H 12.8812 8.89149 4.32886
304 1 H 14.0485 10.8382 5.20216
305 1 H 13.8841 10.4041 6.89249
306 1 H 11.6687 10.4574 6.54656
307 2 C 11.8355 8.20786 14.1314
308 2 C 12.6171 9.25995 13.33
309 4 O 13.8968 9.5165 13.864
310 1 H 11.8245 8.5224 15.1698
311 1 H 10.836 8.02897 13.7909
312 1 H 12.4154 7.27809 14.1111
313 1 H 12.1991 10.2415 13.2092
314 1 H 12.787 8.98989 12.2841
315 1 H 14.3379 8.67884 14.0708
316 2 C 4.72327 11.8825 8.86044
317 2 C 3.68985 12.5343 7.99056
318 4 O 4.03952 13.8589 7.57856
319 1 H 4.80433 12.4035 9.82294
320 1 H 4.40765 10.8737 9.06069
321 1 H 5.68726 11.84 8.33374
322 1 H 2.81833 12.5938 8.60893
323 1 H 3.49672 11.9168 7.09917
324 1 H 3.22471 14.375 7.40804
325 2 C -0.745476 1.50785 9.67922
326 2 C 0.368758 1.98687 10.6405
327 4 O 0.724205 0.991743 11.5594
328 1 H 17.122 1.57542 9.95346
329 1 H -0.551798 1.90775 8.70098
330 1 H -0.686344 0.450489 9.52349
331 1 H 0.0849628 2.92767 11.1308
332 1 H 1.16382 2.2225 9.95009
333 1 H 0.881593 1.25842 12.4958
334 2 C 2.95966 5.81251 11.8873
335 2 C 2.29049 4.56175 12.5417
336 4 O 2.72682 4.42243 13.8894
337 1 H 2.52024 5.95403 10.9093
338 1 H 2.7377 6.63933 12.493
339 1 H 4.07036 5.64062 11.8878
340 1 H 2.66418 3.65032 11.9952
341 1 H 1.19579 4.68324 12.5199
342 1 H 2.03841 4.12685 14.5109
343 2 C 7.27176 14.0776 16.3881
344 2 C 6.46653 13.14 15.4814
345 4 O 5.19954 13.8237 15.3648
346 1 H 8.27398 13.7357 16.493
347 1 H 7.39058 15.0908 15.8535
348 1 H 6.8045 14.2367 17.4261
349 1 H 6.2562 12.1016 15.9827
350 1 H 7.01831 13.0674 14.5138
351 1 H 4.50354 13.4882 15.9315
352 2 C 5.02087 1.46311 11.2255
353 2 C 5.64911 2.19817 12.3816
354 4 O 6.17815 3.43023 11.9354
355 1 H 5.72524 1.299 10.3841
356 1 H 4.56524 0.51825 11.5626
357 1 H 4.16359 2.06792 10.8655
358 1 H 6.43587 1.61027 12.8749
359 1 H 4.83418 2.42116 13.0799
360 1 H 5.46234 4.04328 11.8966
361 2 C 10.2172 14.5269 9.34606
362 2 C 11.3046 15.5533 9.29149
363 4 O 12.1129 15.3629 10.4296
364 1 H 9.72304 14.6229 10.3207
365 1 H 9.41113 14.5891 8.61014
366 1 H 10.6403 13.5068 9.34949
367 1 H 10.8774 16.5667 9.32574
368 1 H 11.9193 15.4657 8.39863
369 1 H 11.641 15.6376 11.2161
370 2 C 12.9495 7.40014 10.0476
371 2 C 11.5677 6.74553 10.164
372 4 O 10.6334 7.61632 9.53429
373 1 H 12.8877 8.38355 10.4675
374 1 H 13.6696 6.84209 10.6131
375 1 H 13.2537 7.40664 9.01029
376 1 H 11.2824 6.71791 11.2078
377 1 H 11.4768 5.74241 9.82231
378 1 H 10.8742 7.68493 8.60486
379 2 C 1.03501 6.75997 1.97387
380 2 C 2.13488 6.43302 2.96318
381 4 O 2.4891 7.48979 3.84218
382 1 H 1.39604 7.34709 1.13791
383 1 H 0.658924 5.84816 1.55877
384 1 H 0.233076 7.35048 2.42813
385 1 H 3.06745 6.28017 2.38063
386 1 H 1.9772 5.5516 3.53482
387 1 H 1.65418 7.81186 4.19201
388 2 C 14.8658 11.6269 10.4268
389 2 C 15.0705 13.1029 10.5458
390 4 O 14.506 13.8393 9.40837
391 1 H 14.9867 11.2802 9.41838
392 1 H 15.5848 11.0918 11.0508
393 1 H 13.8874 11.3208 10.7418
394 1 H 16.1404 13.3072 10.5959
395 1 H 14.638 13.515 11.4418
396 1 H 13.8365 14.3894 9.81959
397 2 C 1.98845 13.4061 12.1993
398 2 C 2.77705 12.1975 12.7098
399 4 O 1.81564 11.2656 13.2478
400 1 H 1.44119 13.8379 13.0132
401 1 H 2.6507 14.1788 11.8505
402 1 H 1.22298 13.1555 11.4647
403 1 H 3.47492 12.5372 13.4808
404 1 H 3.30482 11.6873 11.9473
405 1 H 2.33448 10.5151 13.5548
406 2 C 4.05046 10.1566 -0.982944
407 2 C 2.78476 10.6972 17.2675
408 4 O 3.10368 11.7895 16.3522
409 1 H 4.81701 9.88711 17.1753
410 1 H 4.49021 10.9612 -0.415153
411 1 H 3.89288 9.3514 -0.259436
412 1 H 2.1507 10.9358 -0.811362
413 1 H 2.27412 9.98773 16.6134
414 1 H 2.37479 11.9881 15.7734
415 2 C 8.95875 7.0097 6.68831
416 2 C 10.0574 7.96531 6.07155
417 4 O 10.4384 9.08855 6.96222
418 1 H 8.27908 7.65418 7.24709
419 1 H 8.40746 6.4123 5.96788
420 1 H 9.38764 6.31976 7.41856
421 1 H 9.70776 8.4403 5.17601
422 1 H 10.9987 7.50697 5.80293
423 1 H 9.70175 9.37719 7.49991
424 2 C 3.98328 13.9897 1.35442
425 2 C 3.99377 12.7321 2.23003
426 4 O 2.67912 12.3931 2.61903
427 1 H 3.34643 14.7981 1.79883
428 1 H 4.99973 14.4201 1.34987
429 1 H 3.59458 13.7166 0.309793
430 1 H 4.61884 13.011 3.09589
431 1 H 4.52619 11.9138 1.78765
432 1 H 2.64102 11.4534 2.81154
433 2 C 0.839184 5.16025 8.50657
434 2 C 0.714749 5.88662 7.08994
435 4 O 1.0282 5.04775 5.97144
436 1 H 1.72208 4.50585 8.52949
437 1 H 0.874066 5.82459 9.43784
438 1 H 0.0360994 4.46824 8.56763
439 1 H 1.37282 6.70876 7.06377
440 1 H -0.31414 6.06708 6.95608
441 1 H 1.92233 4.76849 5.7667
442 2 C 14.7978 4.84512 -0.321759
443 2 C 16.1774 4.71198 -0.949264
444 4 O 16.3263 3.55319 17.1144
445 1 H 14.7067 4.75062 0.781421
446 1 H 14.2015 5.7073 -0.531732
447 1 H 14.2749 3.96909 -0.747372
448 1 H 16.9382 4.67915 -0.175443
449 1 H 16.3028 5.64633 17.3922
450 1 H 15.8671 3.74756 16.3051
ITEM: TIMESTEP
6100
ITEM: NUMBER OF ATOMS
450
ITEM: BOX BOUNDS pp pp pp
-9.9940311078817956e-01 1.7924403110787971e+01
-9.9940311078817956e-01 1.7924403110787971e+01
-9.9940311078817956e-01 1.7924403110787971e+01
ITEM: ATOMS id type element x y z
1 2 C 7.59096 3.45386 2.87882
2 2 C 7.46937 1.97623 3.18824
3 4 O 8.85655 1.41901 3.37194
4 1 H 8.25528 3.98907 3.55479
5 1 H 7.80922 3.60725 1.80764
6 1 H 6.63395 3.94304 3.1005
7 1 H 7.00948 1.4546 2.36968
8 1 H 6.98441 1.83186 4.14271
9 1 H 9.30414 1.57876 2.5362
10 2 C 12.5701 11.2188 16.9742
11 2 C 11.7635 12.2302 17.7653
12 4 O 11.285 11.7562 0.0320752
13 1 H 12.0123 10.2802 16.8311
14 1 H 12.8262 11.5735 15.9982
15 1 H 13.4741 10.9324 17.5551
16 1 H 10.8653 12.5865 17.1867
17 1 H 12.373 13.1031 18.0983
18 1 H 11.0032 10.835 0.0191589
19 2 C 10.9278 3.99511 0.823626
20 2 C 10.0169 5.19632 0.476224
21 4 O 10.7195 6.01981 -0.459781
22 1 H 11.7816 4.45848 1.34603
23 1 H 10.4417 3.35916 1.55267
24 1 H 11.2441 3.47778 -0.0816382
25 1 H 9.84618 5.74713 1.41062
26 1 H 9.07259 4.86367 0.0541337
27 1 H 10.1194 6.70181 -0.774226
28 2 C 16.2326 6.23624 11.1771
29 2 C 16.4979 7.71978 10.9366
30 4 O 17.4886 7.92481 9.9495
31 1 H 17.1355 5.62766 11.1986
32 1 H 15.603 6.12703 12.0517
33 1 H 15.565 5.80274 10.4146
34 1 H 16.8886 8.20754 11.8354
35 1 H 15.5447 8.21196 10.6284
36 1 H -0.799329 8.56278 10.3084
37 2 C 1.9778 17.5087 12.9423
38 2 C 2.45921 17.26 14.2367
39 4 O 3.46818 17.6156 14.7146
40 1 H 2.59063 18.1456 12.3588
41 1 H 1.54363 16.6144 12.4721
42 1 H 1.13827 -0.751343 13.07
43 1 H 1.79974 16.4698 14.7419
44 1 H 15.2826 17.4302 0.0246448
45 1 H 5.44171 3.3669 9.21161
46 2 C 7.56889 15.0994 5.95412
47 2 C 6.65931 14.2183 5.12279
48 4 O 6.12205 13.1709 5.86676
49 1 H 7.72994 16.0588 5.48968
50 1 H 7.10549 15.3047 6.92136
51 1 H 8.51499 14.6065 6.15263
52 1 H 7.19681 13.7773 4.30697
53 1 H 5.86242 14.7982 4.65401
54 1 H 5.45047 13.5284 6.45545
55 2 C 15.9418 3.62093 13.2309
56 2 C 14.5164 4.08558 13.5292
57 4 O 14.6309 4.37758 14.9643
58 1 H 16.306 2.9431 14.0357
59 1 H 15.8999 3.11469 12.2112
60 1 H 16.6358 4.45091 13.2301
61 1 H 13.7309 3.3181 13.202
62 1 H 14.3851 5.07516 12.9981
63 1 H 13.7736 4.69459 15.3279
64 2 C 9.33246 11.7293 12.4687
65 2 C 9.68405 11.3897 11.032
66 4 O 9.15864 10.1255 10.6684
67 1 H 9.5582 10.8727 13.1029
68 1 H 9.92431 12.6074 12.7496
69 1 H 8.28297 11.9117 12.6379
70 1 H 10.7789 11.3725 10.9373
71 1 H 9.28645 12.1317 10.3301
72 1 H 9.88629 9.47649 10.8054
73 2 C 5.93657 4.07384 5.91871
74 2 C 4.54845 4.52753 6.2613
75 4 O 3.5904 3.50201 5.90223
76 1 H 6.07302 3.75631 4.8934
77 1 H 6.65647 4.89174 6.12735
78 1 H 6.22957 3.21101 6.52313
79 1 H 4.26818 5.37901 5.66036
80 1 H 4.53075 4.84573 7.286
81 1 H 3.5155 2.98056 6.68928
82 2 C 5.73886 9.15641 12.6729
83 2 C 5.61779 9.93948 13.9241
84 4 O 4.20634 9.94518 14.1299
85 1 H 5.65594 8.06418 12.7483
86 1 H 5.20454 9.61772 11.8476
87 1 H 6.72729 9.37856 12.3465
88 1 H 6.06225 10.9538 13.7791
89 1 H 6.07249 9.56814 14.8774
90 1 H 4.03339 10.7844 14.5315
91 2 C 10.6435 3.80371 14.2472
92 2 C 10.6822 4.85328 15.4008
93 4 O 11.8843 4.73505 16.1069
94 1 H 10.8588 2.76775 14.4123
95 1 H 9.72522 3.8401 13.647
96 1 H 11.411 4.15106 13.5238
97 1 H 9.85877 4.73665 16.1998
98 1 H 10.6914 5.80097 14.714
99 1 H 11.5798 5.23643 16.8907
100 2 C 5.28904 15.6245 11.5107
101 2 C 5.61862 14.8496 12.704
102 4 O 6.91462 15.1987 13.1742
103 1 H 6.08538 15.5018 10.779
104 1 H 4.30312 15.3916 11.1074
105 1 H 5.18967 16.6929 11.7752
106 1 H 5.66531 13.7812 12.4646
107 1 H 4.90795 15.0248 13.5069
108 1 H 6.73352 15.9773 13.7227
109 2 C 3.55032 16.3065 4.95886
110 2 C 2.16695 16.5023 5.66533
111 4 O 1.84309 15.48 6.61302
112 1 H 4.33931 16.1357 5.7415
113 1 H 3.50649 15.3981 4.31794
114 1 H 3.75916 17.1989 4.45622
115 1 H 1.38966 16.7264 4.89466
116 1 H 2.19427 17.436 6.2643
117 1 H 1.43702 14.7797 6.0948
118 2 C 2.49183 9.19874 10.3561
119 2 C 1.26639 10.0921 10.0982
120 4 O 0.231603 9.88055 11.0273
121 1 H 2.12411 8.22896 10.0199
122 1 H 3.35562 9.52826 9.79401
123 1 H 2.72771 9.17913 11.4068
124 1 H 0.88603 9.8017 9.11645
125 1 H 1.5059 11.1763 10.0167
126 1 H 0.486 10.1987 11.8984
127 2 C 7.05602 -0.429503 17.1518
128 2 C 7.55544 -0.0877728 15.7692
129 4 O 6.75995 -0.836376 14.8345
130 1 H 7.57747 0.176925 17.8902
131 1 H 6.00508 -0.16137 17.1798
132 1 H 7.13299 17.3988 17.3212
133 1 H 8.55636 -0.376406 15.5698
134 1 H 7.45846 0.968102 15.4993
135 1 H 5.88871 -0.440467 14.7727
136 2 C 10.2326 10.7744 2.67219
137 2 C 9.08295 11.7696 2.80929
138 4 O 9.02115 12.6547 1.64169
139 1 H 11.1909 11.2064 2.46563
140 1 H 10.3082 10.3077 3.64983
141 1 H 10.0077 10.0289 1.88403
142 1 H 9.08477 12.3629 3.75135
143 1 H 8.05765 11.3678 2.71719
144 1 H 9.86247 13.1052 1.54462
145 2 C 7.53147 15.6 2.16708
146 2 C 7.99827 16.9379 2.71353
147 4 O 9.07834 17.4335 1.97571
148 1 H 6.57484 15.2911 2.58958
149 1 H 7.35187 15.7296 1.06761
150 1 H 8.16851 14.7778 2.44656
151 1 H 8.24834 16.9664 3.78885
152 1 H 7.18877 17.7221 2.83326
153 1 H 9.1677 -0.611955 2.30101
154 2 C -0.609673 0.560717 14.9955
155 2 C 0.769053 0.968159 15.5083
156 4 O 1.58317 1.37952 14.3476
157 1 H -0.499368 -0.194194 14.2091
158 1 H 17.6981 0.0763235 15.7376
159 1 H 17.8034 1.40011 14.5102
160 1 H 1.27559 0.160399 16.0399
161 1 H 0.674865 1.82312 16.1586
162 1 H 2.31668 1.92429 14.636
163 2 C -1.06716 10.2142 6.10174
164 2 C -0.267944 8.92334 6.24509
165 4 O -0.552697 7.87188 5.27086
166 1 H 16.7615 10.1533 6.00271
167 1 H -0.783746 10.8754 6.93176
168 1 H -0.704869 10.7378 5.23074
169 1 H -0.477049 8.46108 7.23796
170 1 H 0.751237 9.30104 6.06808
171 1 H -1.08255 8.16886 4.52088
172 2 C 14.2044 7.83175 1.71369
173 2 C 13.2383 6.9231 2.42629
174 4 O 11.9316 7.49284 2.41926
175 1 H 13.8112 7.9187 0.680962
176 1 H 14.3218 8.77064 2.20466
177 1 H 15.1603 7.3189 1.54754
178 1 H 13.4076 6.8179 3.52428
179 1 H 13.2381 5.91263 2.07563
180 1 H 11.6234 7.43793 1.50645
181 2 C 17.3281 3.27925 2.61221
182 2 C -0.449917 4.08642 3.17031
183 4 O -0.767857 5.21254 3.87399
184 1 H 16.5118 3.87742 2.19511
185 1 H 17.5635 2.58831 1.85849
186 1 H 16.9008 2.69438 3.40303
187 1 H 0.182818 4.46053 2.3596
188 1 H 0.192801 3.30165 3.63901
189 1 H 17.3123 5.44016 4.2927
190 2 C 8.55383 -0.542294 7.93079
191 2 C 7.38506 0.155902 8.54206
192 4 O 7.22516 1.45352 7.91185
193 1 H 8.6656 17.3076 8.15129
194 1 H 8.47682 -0.493836 6.84582
195 1 H 9.45492 0.00516518 8.1988
196 1 H 7.67289 0.304731 9.62755
197 1 H 6.4522 -0.392581 8.47716
198 1 H 7.50918 2.19651 8.47171
199 2 C 11.391 17.7981 14.2006
200 2 C 10.4311 16.8215 13.4796
201 4 O 10.9752 15.5206 13.2056
202 1 H 10.7646 -0.29447 14.4753
203 1 H 11.7176 17.2764 15.0967
204 1 H 12.2403 18.0912 13.592
205 1 H 10.1217 17.1723 12.5105
206 1 H 9.5335 16.7112 14.0927
207 1 H 11.1511 15.0671 14.0364
208 2 C 5.69275 8.83161 2.88608
209 2 C 4.86613 9.67589 3.78842
210 4 O 3.59084 9.92611 3.29556
211 1 H 5.29231 8.90812 1.89886
212 1 H 6.7243 9.20098 2.84983
213 1 H 5.77347 7.78836 3.2304
214 1 H 5.37761 10.6143 3.98848
215 1 H 4.87798 9.21159 4.76151
216 1 H 3.03755 9.17168 3.54762
217 2 C -0.22073 7.67089 14.5476
218 2 C 17.5762 7.04505 15.3151
219 4 O 16.3356 7.77319 15.3233
220 1 H -0.265957 7.49054 13.469
221 1 H -0.0374199 8.74158 14.7277
222 1 H 0.76732 7.2244 14.9289
223 1 H -0.989747 6.82606 16.3151
224 1 H 17.2467 6.04122 14.9735
225 1 H 16.4781 8.68677 15.0719
226 2 C 15.0802 6.3588 7.37713
227 2 C 15.0679 5.80423 5.94767
228 4 O 16.1228 6.41914 5.23618
229 1 H 16.0747 6.52052 7.78313
230 1 H 14.5468 7.30747 7.36655
231 1 H 14.5024 5.65562 7.98739
232 1 H 14.1261 6.03981 5.44496
233 1 H 15.1734 4.73704 5.90824
234 1 H 16.5331 7.1333 5.73477
235 2 C 17.9351 17.3626 0.364849
236 2 C 16.9518 16.2773 0.271657
237 4 O 15.562 16.5954 0.387914
238 1 H 17.8894 -0.868812 -0.480006
239 1 H 17.801 -1.04582 1.31813
240 1 H 0.0300324 16.9517 0.300904
241 1 H 16.9608 15.5852 1.11198
242 1 H 17.1456 15.6656 -0.602738
243 1 H 0.258861 4.98612 5.3045
244 2 C 12.7157 14.9699 4.78227
245 2 C 11.4767 14.0797 4.94474
246 4 O 11.2504 13.8623 6.28775
247 1 H 13.1144 15.0169 3.66367
248 1 H 12.734 15.9856 5.0792
249 1 H 13.5531 14.5433 5.2291
250 1 H 11.7366 13.0113 4.43426
251 1 H 10.5083 14.4361 4.42483
252 1 H 11.6148 12.9837 6.36702
253 2 C 2.07017 5.35862 17.6823
254 2 C 1.13193 4.20167 17.5326
255 4 O 0.571941 4.18456 16.1887
256 1 H 2.78765 5.33817 16.8575
257 1 H 1.60041 6.30997 17.7507
258 1 H 2.71001 5.26613 -0.350755
259 1 H 0.410245 4.00408 -0.58523
260 1 H 1.85072 3.36006 17.6083
261 1 H -0.288613 4.6208 16.1648
262 2 C -0.933584 14.4264 4.14534
263 2 C 0.423264 14.4559 3.40372
264 4 O 1.43829 13.7281 4.12905
265 1 H 17.7854 13.3679 4.3329
266 1 H -0.831472 15.0052 5.1088
267 1 H 17.1504 14.7466 3.51072
268 1 H 0.712087 15.5506 3.33295
269 1 H 0.321519 14.0106 2.39738
270 1 H 1.93719 13.2363 3.45557
271 2 C 14.2945 0.13435 15.8371
272 2 C 13.9353 1.19951 16.9267
273 4 O 14.9502 1.17262 -1.01705
274 1 H 14.5307 -0.845317 16.2423
275 1 H 13.5229 -0.00975487 15.1128
276 1 H 15.2626 0.393886 15.3353
277 1 H 12.9655 0.926938 17.365
278 1 H 13.8347 2.21764 16.4737
279 1 H 15.5418 1.91684 17.7056
280 2 C 10.6328 0.585462 10.8866
281 2 C 11.2703 1.87388 10.5072
282 4 O 10.3717 2.94955 10.8173
283 1 H 9.70303 0.451996 10.3581
284 1 H 11.3366 -0.217103 10.663
285 1 H 10.393 0.645177 11.9687
286 1 H 11.6129 1.90664 9.4534
287 1 H 12.0911 2.06882 11.1946
288 1 H 9.52781 2.71285 10.4269
289 2 C 7.09631 5.45498 9.19928
290 2 C 8.19551 4.64446 9.82921
291 4 O 7.95684 3.21825 9.64611
292 1 H 6.18539 5.40669 9.81721
293 1 H 7.38774 6.48661 9.14785
294 1 H 6.93432 5.12924 8.18713
295 1 H 8.19788 4.84082 10.917
296 1 H 9.16777 4.88925 9.42533
297 1 H 7.24566 2.9063 10.2337
298 2 C 13.359 9.21194 5.25935
299 2 C 13.3549 10.6758 5.60524
300 4 O 12.0587 11.098 6.01167
301 1 H 14.3258 8.85292 4.90846
302 1 H 13.0359 8.6542 6.15741
303 1 H 12.6283 9.02311 4.44819
304 1 H 13.6366 11.3176 4.75444
305 1 H 13.9989 10.8973 6.42469
306 1 H 11.6761 10.336 6.49613
307 2 C 11.7942 8.23798 14.0248
308 2 C 12.5687 9.18317 13.1862
309 4 O 13.9097 9.50491 13.7541
310 1 H 11.5327 8.6057 15.05
311 1 H 10.8733 8.08387 13.4464
312 1 H 12.3206 7.29535 14.1634
313 1 H 12.1266 10.1517 12.9964
314 1 H 12.7936 8.74693 12.2211
315 1 H 14.3539 8.63913 13.7447
316 2 C 4.6453 11.9646 8.93207
317 2 C 3.65591 12.5521 7.91801
318 4 O 4.1138 13.9196 7.81284
319 1 H 4.69181 12.5703 9.83193
320 1 H 4.367 10.9519 9.22417
321 1 H 5.64712 11.922 8.52336
322 1 H 2.63331 12.4971 8.35605
323 1 H 3.68402 12.0668 6.94519
324 1 H 3.51346 14.453 7.2943
325 2 C -0.675971 1.19401 9.71466
326 2 C 0.113019 1.96947 10.693
327 4 O 0.578554 1.00383 11.6689
328 1 H 17.4478 0.670361 10.1996
329 1 H -1.01203 1.65168 8.80771
330 1 H -0.0479409 0.322484 9.35307
331 1 H -0.520492 2.7263 11.1562
332 1 H 0.887474 2.50551 10.1177
333 1 H 0.850861 1.37196 12.5039
334 2 C 2.97237 5.70275 11.8158
335 2 C 2.51613 4.52154 12.6055
336 4 O 2.96538 4.47709 13.9554
337 1 H 2.8782 5.38558 10.7667
338 1 H 2.31121 6.55597 11.9994
339 1 H 4.01987 5.86035 11.9985
340 1 H 2.85696 3.62669 12.1136
341 1 H 1.42413 4.41571 12.59
342 1 H 2.30136 4.10258 14.5267
343 2 C 7.59751 14.3284 16.314
344 2 C 6.55379 13.3425 15.9395
345 4 O 5.29667 13.8416 15.5673
346 1 H 8.54818 13.8477 16.6505
347 1 H 7.81878 15.0322 15.5084
348 1 H 7.20504 15.0012 17.029
349 1 H 6.43173 12.6491 16.699
350 1 H 7.00012 12.6812 15.2043
351 1 H 4.60316 13.2267 15.8144
352 2 C 4.55641 1.19284 11.2295
353 2 C 5.45509 1.93255 12.2647
354 4 O 6.04325 3.20427 11.8382
355 1 H 5.02428 1.11811 10.2792
356 1 H 4.32185 0.230386 11.6193
357 1 H 3.64402 1.75053 10.9411
358 1 H 6.2718 1.27952 12.5405
359 1 H 4.88163 2.13182 13.1751
360 1 H 5.46074 3.9058 12.0982
361 2 C 10.2975 14.3009 9.28401
362 2 C 11.1125 15.5849 9.52409
363 4 O 12.1859 15.3669 10.4424
364 1 H 9.54839 14.1187 10.0538
365 1 H 9.61559 14.4459 8.46707
366 1 H 10.9009 13.4298 9.20861
367 1 H 10.4689 16.3452 9.93053
368 1 H 11.5397 15.9506 8.579
369 1 H 11.8813 15.5832 11.3182
370 2 C 13.0149 7.54503 10.1323
371 2 C 11.6873 6.80538 10.2253
372 4 O 10.6513 7.66003 9.70745
373 1 H 12.9716 8.59229 10.3793
374 1 H 13.7356 7.02049 10.7871
375 1 H 13.3383 7.52541 9.10727
376 1 H 11.5158 6.5829 11.3023
377 1 H 11.7377 5.80872 9.67271
378 1 H 10.7934 7.90278 8.77173
379 2 C 1.19636 6.93273 1.86575
380 2 C 2.20606 6.40401 2.83201
381 4 O 2.31627 7.40935 3.9402
382 1 H 1.31182 8.01229 1.72097
383 1 H 1.19864 6.41653 0.909429
384 1 H 0.191844 6.84732 2.30053
385 1 H 3.21762 6.28153 2.40748
386 1 H 1.92114 5.45546 3.27357
387 1 H 2.12306 6.88778 4.72045
388 2 C 14.7514 11.674 10.3585
389 2 C 15.0303 13.1902 10.4945
390 4 O 14.4978 13.8848 9.41718
391 1 H 15.4997 11.1163 9.77473
392 1 H 14.808 11.223 11.3457
393 1 H 13.7401 11.4085 9.98067
394 1 H 16.1071 13.3327 10.4252
395 1 H 14.7785 13.6881 11.4616
396 1 H 13.6284 14.2002 9.64228
397 2 C 1.83165 13.3702 12.0111
398 2 C 2.37923 12.1435 12.6552
399 4 O 1.43836 11.3278 13.3559
400 1 H 1.34313 14.1237 12.6703
401 1 H 2.6346 13.8404 11.4631
402 1 H 1.04277 13.0567 11.316
403 1 H 3.24518 12.4084 13.3088
404 1 H 2.84577 11.5502 11.8408
405 1 H 2.02663 10.617 13.7081
406 2 C 3.97795 10.2001 17.5736
407 2 C 2.72423 10.8857 17.1253
408 4 O 3.03913 11.7536 16.0472
409 1 H 4.43672 9.55081 16.809
410 1 H 4.79272 10.9095 -1.18269
411 1 H 3.76814 9.59061 -0.497735
412 1 H 2.45971 11.3674 -0.848755
413 1 H 1.90141 10.2355 16.7841
414 1 H 2.26121 11.9848 15.5567
415 2 C 9.25365 6.68364 6.39919
416 2 C 9.94742 8.00985 6.10238
417 4 O 10.4617 8.68042 7.24521
418 1 H 8.16855 6.80161 6.45388
419 1 H 9.53911 6.10701 5.51343
420 1 H 9.53757 6.21445 7.31336
421 1 H 9.29958 8.64537 5.48313
422 1 H 10.7993 7.76882 5.43674
423 1 H 9.88716 9.35538 7.66727
424 2 C 3.93566 13.986 1.15057
425 2 C 3.94679 12.7637 2.03317
426 4 O 2.7003 12.1278 2.09166
427 1 H 3.06943 14.5863 1.40658
428 1 H 4.91432 14.457 1.14918
429 1 H 3.72924 13.7531 0.161492
430 1 H 4.21981 13.0943 3.03514
431 1 H 4.71053 12.0311 1.64568
432 1 H 2.76561 11.2069 2.42503
433 2 C 0.934317 5.30893 8.23111
434 2 C 0.764121 6.0668 6.94877
435 4 O 1.01649 5.20458 5.85583
436 1 H 1.94653 5.10387 8.65349
437 1 H 0.496935 5.9267 8.96875
438 1 H 0.310116 4.39941 8.241
439 1 H 1.31403 7.0453 6.97373
440 1 H -0.289608 6.37806 7.02533
441 1 H 1.85406 4.85352 5.67073
442 2 C 14.4523 5.03388 -0.492347
443 2 C 15.9515 4.75317 -0.724416
444 4 O 16.1969 4.0224 17.0831
445 1 H 14.1887 5.55865 0.412729
446 1 H 14.0199 5.71455 -1.24421
447 1 H 13.8352 4.16002 -0.545902
448 1 H 16.4055 4.17823 0.0953842
449 1 H 16.4134 5.72655 -0.614939
450 1 H 15.8159 4.40144 16.3009
ITEM: TIMESTEP
6200
ITEM: NUMBER OF ATOMS
450
ITEM: BOX BOUNDS pp pp pp
-1.0125449144506273e+00 1.7937544914450463e+01
-1.0125449144506273e+00 1.7937544914450463e+01
-1.0125449144506273e+00 1.7937544914450463e+01
ITEM: ATOMS id type element x y z
1 2 C 7.49001 3.36199 2.68308
2 2 C 7.40996 1.91455 3.07849
3 4 O 8.61504 1.29203 2.78429
4 1 H 8.2162 3.82834 3.31608
5 1 H 7.86802 3.43925 1.67109
6 1 H 6.57197 3.95899 2.76664
7 1 H 6.58385 1.35208 2.60164
8 1 H 7.25546 1.89134 4.16786
9 1 H 9.04646 1.68796 2.0134
10 2 C 12.5302 11.0722 17.141
11 2 C 11.9318 12.3164 17.6964
12 4 O 11.1583 12.0399 0.0114036
13 1 H 11.8057 10.323 16.8668
14 1 H 13.0876 11.3964 16.2358
15 1 H 13.2944 10.6155 17.7406
16 1 H 11.2922 12.8433 17.041
17 1 H 12.6783 13.0426 -0.956693
18 1 H 10.3708 12.5818 0.0840453
19 2 C 10.708 4.1729 0.720748
20 2 C 10.0686 5.49594 0.480889
21 4 O 10.7963 6.29889 -0.447507
22 1 H 11.7281 4.37617 1.1341
23 1 H 10.1103 3.62612 1.4287
24 1 H 10.8911 3.54448 -0.180349
25 1 H 9.99074 6.0499 1.42827
26 1 H 9.04416 5.39504 0.118868
27 1 H 10.2686 7.05133 -0.775319
28 2 C 16.4483 6.27244 11.2576
29 2 C 16.6081 7.70149 10.8602
30 4 O 17.6833 7.73315 9.92901
31 1 H 17.3792 5.94043 11.7304
32 1 H 15.5319 6.13366 11.8429
33 1 H 16.4399 5.67255 10.3192
34 1 H 16.8417 8.31629 11.7142
35 1 H 15.6867 8.11994 10.4402
36 1 H -0.723306 8.48383 10.1983
37 2 C 1.77926 17.5723 13.0402
38 2 C 2.4676 17.392 14.4242
39 4 O 3.62284 17.6517 14.7208
40 1 H 2.10302 -0.532694 12.5015
41 1 H 2.06057 16.709 12.4337
42 1 H 0.738141 -1.33653 13.0363
43 1 H 1.81296 16.9366 15.2156
44 1 H 15.7219 17.1987 -0.0531371
45 1 H 5.13549 2.76372 8.83127
46 2 C 7.48383 14.981 5.94503
47 2 C 6.52767 14.0601 5.2358
48 4 O 6.12247 13.1087 6.19739
49 1 H 7.92734 15.7587 5.31655
50 1 H 6.99781 15.4292 6.80804
51 1 H 8.33343 14.3776 6.29686
52 1 H 7.06114 13.5271 4.43388
53 1 H 5.64244 14.5698 4.84116
54 1 H 5.4597 13.5688 6.74165
55 2 C 16.2739 3.7727 13.3165
56 2 C 14.7323 3.85871 13.5253
57 4 O 14.2988 4.54989 14.6194
58 1 H 16.6702 2.95616 13.8844
59 1 H 16.5521 3.80107 12.263
60 1 H 16.7389 4.66687 13.7689
61 1 H 14.373 2.84405 13.3726
62 1 H 14.194 4.35629 12.7537
63 1 H 13.3567 4.71155 14.6088
64 2 C 9.10627 11.5437 12.4233
65 2 C 9.92892 11.0321 11.2163
66 4 O 9.2298 9.98022 10.536
67 1 H 9.44074 10.9577 13.3248
68 1 H 9.20352 12.5868 12.6343
69 1 H 8.06185 11.2738 12.321
70 1 H 10.8976 10.6619 11.5405
71 1 H 10.1561 11.7796 10.488
72 1 H 9.75917 9.19219 10.6694
73 2 C 6.11634 3.93977 5.72512
74 2 C 4.65136 4.29687 5.92768
75 4 O 3.83196 3.16787 6.16516
76 1 H 6.15538 2.99984 5.17888
77 1 H 6.6738 4.76481 5.28171
78 1 H 6.58826 3.66492 6.67976
79 1 H 4.20413 4.76192 5.03928
80 1 H 4.59301 5.05682 6.75739
81 1 H 4.38762 2.3994 6.07239
82 2 C 5.91329 8.93753 12.8909
83 2 C 5.59835 9.9272 14.0129
84 4 O 4.14912 10.0367 14.2828
85 1 H 5.42628 7.98749 13.0271
86 1 H 5.53737 9.37978 11.9553
87 1 H 7.03628 8.75766 12.6926
88 1 H 5.98283 10.9084 13.7582
89 1 H 5.93173 9.62967 14.9822
90 1 H 4.03293 10.9357 14.6384
91 2 C 10.652 3.79833 14.3158
92 2 C 10.6164 4.99858 15.1927
93 4 O 11.9123 5.16936 15.8203
94 1 H 11.0645 2.92378 14.8133
95 1 H 9.6277 3.43665 14.2237
96 1 H 11.0796 3.83542 13.3278
97 1 H 9.80354 5.17862 15.8462
98 1 H 10.3773 5.91509 14.5533
99 1 H 11.737 5.59893 16.6308
100 2 C 5.03574 15.7133 11.5029
101 2 C 5.68935 14.9822 12.7229
102 4 O 7.02338 15.3679 12.9959
103 1 H 5.663 15.6716 10.6384
104 1 H 4.04235 15.2852 11.1839
105 1 H 4.8803 16.7478 11.8106
106 1 H 5.62494 13.9048 12.6059
107 1 H 5.07688 15.0616 13.639
108 1 H 6.86419 16.1875 13.4915
109 2 C 3.57145 16.1981 4.99357
110 2 C 2.35504 16.5107 5.86595
111 4 O 1.74503 15.2679 6.39191
112 1 H 4.30771 15.683 5.56015
113 1 H 3.29638 15.3816 4.34309
114 1 H 3.94374 17.115 4.49488
115 1 H 1.65545 17.0806 5.30556
116 1 H 2.6239 17.0829 6.75619
117 1 H 1.45316 14.8269 5.58581
118 2 C 2.58187 9.16869 10.4359
119 2 C 1.43992 10.0547 9.97695
120 4 O 0.33664 9.8479 10.8622
121 1 H 2.19482 8.16431 10.4235
122 1 H 3.4135 9.15202 9.68759
123 1 H 2.92798 9.48985 11.4356
124 1 H 1.08928 9.66146 9.02312
125 1 H 1.64758 11.0879 9.84842
126 1 H 0.382617 10.4319 11.6249
127 2 C 7.34882 -0.38526 17.2676
128 2 C 7.52749 -0.310355 15.7286
129 4 O 6.60465 -0.949819 14.856
130 1 H 7.81795 0.486022 17.6234
131 1 H 6.27461 -0.313172 17.4965
132 1 H 7.81231 17.7184 17.7873
133 1 H 8.50303 -0.729165 15.4056
134 1 H 7.53084 0.705585 15.3699
135 1 H 5.93466 -1.44097 15.3218
136 2 C 10.3392 11.0102 2.72756
137 2 C 9.29528 12.0478 3.03832
138 4 O 9.04741 13.0446 2.0299
139 1 H 11.3238 11.5015 2.62835
140 1 H 10.4031 10.3377 3.55307
141 1 H 10.0512 10.562 1.77361
142 1 H 9.49437 12.5336 3.95344
143 1 H 8.25819 11.7149 3.20484
144 1 H 9.88312 13.5061 1.84542
145 2 C 7.3514 15.7255 2.08631
146 2 C 7.82139 17.0684 2.5774
147 4 O 9.02088 17.4611 1.89136
148 1 H 6.53303 15.4973 2.79225
149 1 H 7.01349 15.7771 1.06392
150 1 H 8.00361 14.9102 2.11593
151 1 H 8.16969 17.0099 3.60625
152 1 H 7.05735 17.8373 2.52279
153 1 H 9.352 -0.694587 2.32561
154 2 C -0.574167 0.629905 15.2045
155 2 C 0.892158 0.799673 15.5007
156 4 O 1.58723 1.23735 14.3485
157 1 H -0.79725 -0.0684383 14.3922
158 1 H 17.9203 0.324847 16.1423
159 1 H 17.952 1.56711 14.8784
160 1 H 1.33634 -0.10059 15.8868
161 1 H 0.972225 1.58099 16.2657
162 1 H 2.44402 1.59676 14.5949
163 2 C 17.6742 10.252 5.86911
164 2 C -0.378497 9.03553 6.23324
165 4 O -0.514517 8.00809 5.29797
166 1 H 16.6282 9.96493 5.98652
167 1 H 17.8113 11.0782 6.56272
168 1 H -1.09204 10.5852 4.83984
169 1 H -0.624793 8.68366 7.20903
170 1 H 0.665883 9.36525 6.33293
171 1 H -0.0953385 8.33958 4.50137
172 2 C 14.2157 7.68433 2.11339
173 2 C 12.9918 6.86161 2.61826
174 4 O 11.7354 7.51471 2.27937
175 1 H 14.3906 7.76823 1.07576
176 1 H 14.1451 8.63368 2.63997
177 1 H 15.1087 7.19845 2.57732
178 1 H 12.9315 6.91997 3.68531
179 1 H 12.9269 5.8236 2.22676
180 1 H 11.8698 7.61067 1.34715
181 2 C 17.0633 3.15993 2.5982
182 2 C -0.609617 3.8562 2.94262
183 4 O -0.924822 5.11811 3.70121
184 1 H 16.3785 3.69495 1.94858
185 1 H 17.4061 2.29007 1.98094
186 1 H 16.4324 2.86914 3.49658
187 1 H 0.0586121 4.09135 2.09609
188 1 H -0.0842483 3.08922 3.47449
189 1 H 17.075 5.22991 3.93713
190 2 C 8.39974 -0.583204 7.90197
191 2 C 7.09597 0.176637 8.35876
192 4 O 7.06729 1.50572 7.84148
193 1 H 8.70898 17.733 8.72741
194 1 H 8.25069 17.7176 7.04472
195 1 H 9.25114 0.0593181 7.68073
196 1 H 7.03878 0.168643 9.42185
197 1 H 6.19188 -0.382508 8.05839
198 1 H 7.14364 2.14937 8.55384
199 2 C 11.3666 17.6566 14.3373
200 2 C 10.4133 16.7616 13.6461
201 4 O 11.1607 15.5726 13.3684
202 1 H 10.8352 -0.306901 14.3803
203 1 H 11.5383 17.241 15.3401
204 1 H 12.3614 17.7064 13.9102
205 1 H 9.96194 17.094 12.7015
206 1 H 9.58602 16.4805 14.3078
207 1 H 10.5814 14.7891 13.391
208 2 C 6.03864 8.57782 2.88572
209 2 C 5.08858 9.72371 3.54389
210 4 O 3.68625 9.43865 3.24806
211 1 H 6.19653 8.68157 1.80376
212 1 H 7.02807 8.59943 3.35563
213 1 H 5.55359 7.60639 3.07978
214 1 H 5.26022 10.7131 3.08139
215 1 H 5.36297 9.81407 4.5947
216 1 H 3.43148 8.74784 3.88173
217 2 C -0.144114 7.54228 14.7648
218 2 C 17.4608 7.27261 15.391
219 4 O 16.427 8.09299 14.8038
220 1 H -0.283187 7.5256 13.705
221 1 H 0.326438 8.49036 14.9836
222 1 H 0.619843 6.79782 14.9789
223 1 H 17.5291 7.47114 16.4942
224 1 H 17.1591 6.23826 15.1794
225 1 H 16.635 9.01318 14.9645
226 2 C 15.1542 6.40316 7.31757
227 2 C 15.1956 5.68852 5.96987
228 4 O 15.7507 6.3563 4.86442
229 1 H 16.1584 6.27514 7.81916
230 1 H 15.0348 7.47298 7.13941
231 1 H 14.4355 6.07533 8.0248
232 1 H 14.2018 5.46868 5.55838
233 1 H 15.6442 4.6812 6.06606
234 1 H 16.5524 6.88018 5.04572
235 2 C -0.938966 17.3873 0.325976
236 2 C 17.1795 16.1201 0.437012
237 4 O 15.8536 16.5416 0.639377
238 1 H 17.8933 -0.816779 -0.440561
239 1 H 17.7501 -1.11692 1.28457
240 1 H 0.119783 17.1408 0.27813
241 1 H 17.3248 15.4497 1.26596
242 1 H 17.1201 15.636 -0.544226
243 1 H 0.509758 5.19311 5.34047
244 2 C 12.9927 14.6375 4.88914
245 2 C 11.5718 14.1266 5.009
246 4 O 11.0469 13.6829 6.27607
247 1 H 13.1379 14.6374 3.84715
248 1 H 13.3803 15.6437 5.21497
249 1 H 13.8458 13.974 5.33239
250 1 H 11.4303 13.2762 4.43277
251 1 H 10.9018 14.8122 4.60409
252 1 H 11.3542 12.7731 6.48102
253 2 C 2.27802 5.24094 17.6436
254 2 C 1.13769 4.21767 17.5376
255 4 O 0.571689 4.22439 16.2484
256 1 H 2.87177 5.11508 16.7471
257 1 H 2.14711 6.33063 -1.1933
258 1 H 2.95425 5.00357 -0.480796
259 1 H 0.301109 4.3777 -0.725052
260 1 H 1.51435 3.28477 -1.00825
261 1 H -0.189741 3.60193 16.3296
262 2 C -0.797741 14.256 4.11245
263 2 C 0.287247 13.9731 3.08868
264 4 O 1.45867 13.7329 3.90335
265 1 H 17.677 13.3537 4.31902
266 1 H -0.384689 14.8351 4.93867
267 1 H 17.3855 14.84 3.61104
268 1 H 0.34158 14.8204 2.43819
269 1 H 0.0274318 13.0976 2.51805
270 1 H 2.07074 13.2404 3.33527
271 2 C 14.3221 0.0380588 15.9339
272 2 C 14.0436 1.29131 16.7485
273 4 O 14.8958 1.48084 17.9362
274 1 H 13.965 -0.807867 16.592
275 1 H 13.8119 0.0408807 14.9648
276 1 H 15.3925 -0.126785 15.7651
277 1 H 13.0299 1.15969 17.0721
278 1 H 14.1069 2.17187 16.1229
279 1 H 15.5609 2.11235 17.6155
280 2 C 10.7635 0.664201 11.514
281 2 C 11.3922 1.80899 10.6293
282 4 O 10.6977 3.04451 10.6376
283 1 H 9.84095 0.308142 11.0647
284 1 H 11.5119 -0.121934 11.5137
285 1 H 10.6007 1.041 12.5242
286 1 H 11.4522 1.50031 9.60099
287 1 H 12.4345 2.05525 10.9487
288 1 H 9.76932 2.79278 10.7138
289 2 C 6.85325 5.31104 9.071
290 2 C 8.01382 4.65702 9.84632
291 4 O 7.76029 3.28303 10.1677
292 1 H 5.89234 5.05845 9.51443
293 1 H 6.96647 6.39268 9.04517
294 1 H 6.85581 4.96699 8.04086
295 1 H 8.1622 5.17179 10.7601
296 1 H 8.92641 4.65109 9.23424
297 1 H 7.00791 3.14007 10.7494
298 2 C 13.4856 9.65254 5.13739
299 2 C 13.1541 11.0886 5.44634
300 4 O 12.0319 11.2358 6.3222
301 1 H 14.4538 9.67169 4.66497
302 1 H 13.5401 9.14552 6.11797
303 1 H 12.7425 9.16874 4.51524
304 1 H 13.0571 11.7297 4.58992
305 1 H 13.9881 11.4701 6.09073
306 1 H 11.6532 10.3621 6.56112
307 2 C 11.7708 8.28303 14.0377
308 2 C 12.6387 9.22357 13.2296
309 4 O 13.9183 9.43033 13.7613
310 1 H 11.5077 8.60831 15.0213
311 1 H 10.8583 8.11829 13.4611
312 1 H 12.2897 7.33481 14.0888
313 1 H 12.2186 10.254 13.2742
314 1 H 12.7265 8.89826 12.2049
315 1 H 14.2828 8.7 14.2555
316 2 C 4.64214 12.0779 8.96911
317 2 C 3.66611 12.7889 8.0821
318 4 O 4.07349 14.1331 7.84361
319 1 H 4.41742 12.1581 10.0316
320 1 H 4.86091 11.0289 8.69499
321 1 H 5.58537 12.5978 8.89736
322 1 H 2.67336 12.7195 8.49735
323 1 H 3.58056 12.2849 7.11925
324 1 H 3.4462 14.459 7.15211
325 2 C -0.564281 0.973777 9.66727
326 2 C -0.167238 1.89768 10.8395
327 4 O 0.371091 1.14049 11.8688
328 1 H 17.9722 0.0358643 10.0773
329 1 H 17.4576 1.36016 9.16793
330 1 H 0.17212 0.780197 8.88288
331 1 H -1.10849 2.36788 11.151
332 1 H 0.467746 2.67225 10.4198
333 1 H 0.738308 1.60804 12.6276
334 2 C 3.05919 5.53511 11.8786
335 2 C 2.68639 4.29878 12.6824
336 4 O 2.961 4.54089 14.0736
337 1 H 2.84728 5.44037 10.8161
338 1 H 2.53603 6.42743 12.3475
339 1 H 4.12615 5.65805 11.9407
340 1 H 3.18545 3.33691 12.428
341 1 H 1.64586 3.97538 12.6028
342 1 H 2.19603 4.996 14.4219
343 2 C 7.69722 14.5347 16.2238
344 2 C 6.71635 13.3803 16.4578
345 4 O 5.36867 13.7438 16.1616
346 1 H 8.67945 14.318 16.6676
347 1 H 7.78029 14.9434 15.2705
348 1 H 7.31997 15.3913 16.7978
349 1 H 6.79194 12.9615 17.5417
350 1 H 7.0826 12.4827 15.9153
351 1 H 4.82236 13.1055 15.6941
352 2 C 4.3006 1.06238 11.2209
353 2 C 5.29408 1.58556 12.1773
354 4 O 5.75003 2.8436 11.6687
355 1 H 4.73936 0.971839 10.1964
356 1 H 4.00061 0.0606041 11.5041
357 1 H 3.45713 1.72713 11.082
358 1 H 6.14298 0.922515 12.1689
359 1 H 4.97322 1.61585 13.2162
360 1 H 5.01694 3.45028 11.5082
361 2 C 10.3337 14.3335 9.31523
362 2 C 11.0694 15.5801 9.67769
363 4 O 12.2173 15.4317 10.5538
364 1 H 10.0597 13.7441 10.2114
365 1 H 9.34605 14.591 8.87768
366 1 H 10.917 13.7245 8.62077
367 1 H 10.3986 16.364 10.0987
368 1 H 11.47 15.9646 8.74838
369 1 H 11.8775 15.159 11.4549
370 2 C 13.0169 7.56479 9.9378
371 2 C 11.7388 6.97415 10.4803
372 4 O 10.5344 7.6183 10.1287
373 1 H 13.0597 8.65739 10.0658
374 1 H 13.96 7.12636 10.3662
375 1 H 12.9948 7.48561 8.84799
376 1 H 11.8602 6.91227 11.5423
377 1 H 11.6814 5.99085 10.1232
378 1 H 10.5192 7.93348 9.22296
379 2 C 1.22837 7.34888 1.89276
380 2 C 2.41397 6.80959 2.7015
381 4 O 2.30461 7.16607 4.03401
382 1 H 1.23127 8.42871 1.74749
383 1 H 1.06915 6.82463 0.948778
384 1 H 0.322451 7.01565 2.38991
385 1 H 3.35201 7.13675 2.34619
386 1 H 2.40197 5.69317 2.63002
387 1 H 1.37024 7.12273 4.28086
388 2 C 14.6071 11.7316 10.3642
389 2 C 14.8781 13.1861 10.5432
390 4 O 14.4664 13.9418 9.37573
391 1 H 15.1071 11.4456 9.44313
392 1 H 14.8677 11.013 11.1331
393 1 H 13.5397 11.6591 10.146
394 1 H 15.9519 13.3864 10.6413
395 1 H 14.3863 13.6345 11.3802
396 1 H 13.6736 14.4534 9.68345
397 2 C 1.43676 13.2319 11.9064
398 2 C 2.3023 12.1635 12.5935
399 4 O 1.33021 11.3888 13.3349
400 1 H 0.981955 13.9923 12.5397
401 1 H 2.04185 13.7196 11.1286
402 1 H 0.661703 12.7278 11.359
403 1 H 3.04522 12.588 13.2378
404 1 H 2.85538 11.5604 11.8372
405 1 H 1.78052 10.618 13.6809
406 2 C 3.87454 10.3133 17.3929
407 2 C 2.71416 11.1873 17.0709
408 4 O 3.0119 11.8282 15.7907
409 1 H 3.81871 9.45397 16.7494
410 1 H 4.86497 10.7077 17.155
411 1 H 3.81416 9.81946 -0.58466
412 1 H 2.66735 11.8294 -1.01077
413 1 H 1.77887 10.6723 16.992
414 1 H 2.17413 12.0575 15.3484
415 2 C 9.55325 6.51563 6.17299
416 2 C 9.91574 7.95778 5.97541
417 4 O 10.2952 8.48226 7.25671
418 1 H 8.83564 6.38463 6.97816
419 1 H 9.24452 6.08546 5.21048
420 1 H 10.5208 6.10251 6.5279
421 1 H 9.08969 8.55466 5.55877
422 1 H 10.7569 7.89865 5.29172
423 1 H 9.54792 8.94312 7.65347
424 2 C 3.86237 14.067 0.858378
425 2 C 3.95668 12.8923 1.79787
426 4 O 2.7766 12.0212 1.58229
427 1 H 3.02904 14.716 1.16109
428 1 H 4.88431 14.4183 0.620799
429 1 H 3.54717 13.7901 -0.192546
430 1 H 4.0451 13.2101 2.86137
431 1 H 4.82812 12.3614 1.53522
432 1 H 2.83769 11.1741 2.01032
433 2 C 1.06035 5.31289 8.40072
434 2 C 0.863391 6.03636 7.12211
435 4 O 1.15601 5.27467 6.02317
436 1 H 2.11631 5.08462 8.54862
437 1 H 0.726524 5.797 9.35153
438 1 H 0.599133 4.2869 8.53609
439 1 H 1.49175 6.92261 7.11696
440 1 H -0.132072 6.50712 7.09843
441 1 H 1.53838 4.39265 6.24992
442 2 C 14.2981 5.03958 -0.898561
443 2 C 15.7073 4.83527 -0.591152
444 4 O 16.4607 4.28411 17.1852
445 1 H 13.8697 5.72087 -0.184089
446 1 H 14.0792 5.37038 17.0152
447 1 H 13.5552 4.24094 -0.810945
448 1 H 15.84 4.06342 0.160983
449 1 H 16.0903 5.78802 -0.213213
450 1 H 15.8119 4.35202 16.4477
ITEM: TIMESTEP
6300
ITEM: NUMBER OF ATOMS
450
ITEM: BOX BOUNDS pp pp pp
-1.0110711152351470e+00 1.7936071115234981e+01
-1.0110711152351470e+00 1.7936071115234981e+01
-1.0110711152351470e+00 1.7936071115234981e+01
ITEM: ATOMS id type element x y z
1 2 C 7.32493 3.32483 2.43287
2 2 C 7.52486 1.81903 2.72886
3 4 O 8.61684 1.21284 2.08552
4 1 H 8.17302 3.91702 2.84419
5 1 H 7.31811 3.56258 1.36615
6 1 H 6.35728 3.671 2.78619
7 1 H 6.62879 1.25003 2.51154
8 1 H 7.59315 1.70525 3.79896
9 1 H 8.67726 1.4466 1.15167
10 2 C 12.4009 10.9877 17.3269
11 2 C 12.0423 12.4318 17.5771
12 4 O 11.1155 12.3429 -0.282394
13 1 H 11.5879 10.4587 16.8332
14 1 H 13.3521 10.8515 16.779
15 1 H 12.6655 10.5089 -0.687881
16 1 H 11.4819 12.9777 16.7757
17 1 H 12.8471 13.11 17.8418
18 1 H 10.8426 13.232 -0.0560867
19 2 C 10.6172 4.43604 0.501273
20 2 C 9.99607 5.76857 0.378877
21 4 O 10.9161 6.56446 -0.431213
22 1 H 11.6753 4.45331 0.577676
23 1 H 10.1854 3.85306 1.31103
24 1 H 10.4297 3.84491 -0.369685
25 1 H 9.83167 6.2976 1.29702
26 1 H 9.02275 5.73286 -0.14038
27 1 H 10.6794 7.47618 -0.654078
28 2 C 16.5442 6.33014 11.3177
29 2 C 16.8327 7.71376 10.6528
30 4 O 18.0123 7.67613 9.8199
31 1 H 17.4161 6.14333 11.943
32 1 H 15.7428 6.48041 12.0535
33 1 H 16.4223 5.56856 10.5835
34 1 H 16.8541 8.46586 11.4677
35 1 H 15.9811 8.01299 10.0397
36 1 H -0.444418 8.47731 10.0399
37 2 C 1.84082 17.2123 13.1757
38 2 C 2.64532 17.1175 14.4325
39 4 O 3.66498 17.8162 14.6052
40 1 H 1.79473 -0.678155 12.7974
41 1 H 2.34211 16.6848 12.3067
42 1 H 0.809648 16.713 13.3109
43 1 H 2.21807 16.643 15.283
44 1 H 15.5763 17.0873 0.316687
45 1 H 5.62299 3.03755 9.1435
46 2 C 7.52211 14.9384 5.94338
47 2 C 6.73473 13.7229 5.40996
48 4 O 5.9758 12.9178 6.3446
49 1 H 8.04196 15.4305 5.11197
50 1 H 6.86895 15.6543 6.4444
51 1 H 8.32473 14.6658 6.62642
52 1 H 7.49514 13.0654 4.97201
53 1 H 6.07517 13.9958 4.59393
54 1 H 5.25375 13.4453 6.69195
55 2 C 16.3593 3.74794 13.5479
56 2 C 14.8744 3.70674 13.5219
57 4 O 14.3603 4.62173 14.5405
58 1 H 16.7828 3.3792 14.4765
59 1 H 16.7174 3.21998 12.7279
60 1 H 16.6885 4.76292 13.3227
61 1 H 14.687 2.61428 13.7322
62 1 H 14.2306 4.00061 12.6677
63 1 H 13.4125 4.83425 14.5177
64 2 C 8.95462 11.3011 12.2953
65 2 C 9.9097 10.6587 11.3376
66 4 O 9.221 9.81204 10.4395
67 1 H 8.6165 10.5631 12.9905
68 1 H 9.49116 12.0264 12.928
69 1 H 8.1054 11.8122 11.7983
70 1 H 10.7211 10.0999 11.8464
71 1 H 10.4406 11.4062 10.7191
72 1 H 9.80575 9.05195 10.374
73 2 C 6.12593 3.79259 5.50916
74 2 C 4.61696 4.04259 5.68888
75 4 O 3.99931 3.06759 6.59268
76 1 H 6.12884 3.07065 4.70456
77 1 H 6.61702 4.71181 5.23561
78 1 H 6.58321 3.37484 6.40315
79 1 H 4.03417 4.12119 4.7766
80 1 H 4.5298 4.98861 6.17896
81 1 H 3.95056 2.21856 6.13111
82 2 C 6.09556 8.78782 13.1016
83 2 C 5.52072 9.86032 14.0123
84 4 O 4.09681 9.94225 13.9359
85 1 H 5.6462 7.85721 13.3927
86 1 H 5.86136 8.85869 12.0673
87 1 H 7.12323 8.69237 13.3371
88 1 H 5.85503 10.883 13.7358
89 1 H 5.75765 9.64817 15.0849
90 1 H 3.95204 10.6965 14.5339
91 2 C 10.6549 3.77514 14.3133
92 2 C 10.4014 5.03477 15.1339
93 4 O 11.7269 5.61782 15.3775
94 1 H 10.7745 3.01393 15.15
95 1 H 9.8542 3.31894 13.7458
96 1 H 11.5474 3.73505 13.6969
97 1 H 10.0393 4.86051 16.182
98 1 H 9.71502 5.81814 14.8828
99 1 H 11.8178 5.72819 16.3732
100 2 C 4.87816 15.7304 11.6569
101 2 C 5.78298 15.0852 12.6857
102 4 O 7.01309 15.7871 12.8232
103 1 H 5.23535 15.6998 10.6213
104 1 H 3.92062 15.2647 11.6918
105 1 H 4.84359 16.7699 11.9591
106 1 H 6.00088 14.0699 12.2808
107 1 H 5.2617 14.919 13.6352
108 1 H 6.89216 16.4687 13.4974
109 2 C 3.6021 16.2944 5.06105
110 2 C 2.42227 16.287 6.00201
111 4 O 1.98174 15.0045 6.16084
112 1 H 4.35572 15.5914 5.4108
113 1 H 3.32184 16.0044 4.03346
114 1 H 3.98262 17.3472 4.96922
115 1 H 1.62679 16.9439 5.51925
116 1 H 2.70617 16.6842 6.96448
117 1 H 1.78469 14.6851 5.24795
118 2 C 2.6956 8.98038 10.5132
119 2 C 1.65737 9.90162 9.89679
120 4 O 0.439849 10.035 10.6586
121 1 H 2.43148 7.92468 10.6777
122 1 H 3.53263 8.916 9.82503
123 1 H 3.04499 9.37881 11.46
124 1 H 1.28642 9.56129 8.92883
125 1 H 2.06509 10.9494 9.80436
126 1 H 0.712044 10.2928 11.5605
127 2 C 7.47268 -0.401777 17.0868
128 2 C 7.51533 -0.370718 15.5933
129 4 O 6.62018 17.5668 15.0075
130 1 H 8.49434 -0.200741 17.5437
131 1 H 6.66374 0.206552 17.4985
132 1 H 7.33877 17.5156 17.3552
133 1 H 8.52139 -0.626034 15.2194
134 1 H 7.21267 0.578143 15.1226
135 1 H 5.83232 -0.967648 14.6411
136 2 C 10.3647 11.1468 3.04127
137 2 C 9.23942 12.1313 3.30678
138 4 O 9.4806 13.2365 2.47194
139 1 H 11.3093 11.6882 3.16537
140 1 H 10.2138 10.2766 3.73437
141 1 H 10.2193 10.8521 2.01851
142 1 H 9.36974 12.5169 4.38776
143 1 H 8.23153 11.7969 3.20992
144 1 H 8.97886 13.9736 2.83546
145 2 C 6.9449 16.0217 1.92192
146 2 C 7.58163 17.268 2.48092
147 4 O 8.8693 17.3923 1.78066
148 1 H 5.98784 15.773 2.41639
149 1 H 6.87765 16.0788 0.835589
150 1 H 7.71168 15.2432 1.97834
151 1 H 7.87456 17.1947 3.52238
152 1 H 6.9823 -0.824761 2.15058
153 1 H 9.33372 -0.839025 2.27711
154 2 C -0.497045 0.739032 15.4741
155 2 C 0.970265 0.995725 15.7173
156 4 O 1.56882 1.39864 14.5036
157 1 H -0.641751 0.0844939 14.6198
158 1 H 17.9707 0.397591 16.4072
159 1 H -0.956565 1.70688 15.2779
160 1 H 1.49612 0.091715 16.1014
161 1 H 1.07465 1.76522 16.4868
162 1 H 2.41252 1.82521 14.6893
163 2 C 17.5069 10.2977 5.70315
164 2 C -0.525327 9.23826 6.145
165 4 O -0.585258 8.13337 5.19145
166 1 H 16.5901 9.73317 5.59805
167 1 H 17.2758 11.0112 6.47794
168 1 H 17.7859 10.7298 4.73525
169 1 H -0.885808 8.84826 7.1015
170 1 H 0.490455 9.53055 6.41259
171 1 H 0.119273 8.29912 4.56327
172 2 C 14.1017 7.49845 2.47954
173 2 C 12.8021 6.97595 2.83174
174 4 O 11.6831 7.55548 2.15795
175 1 H 14.2812 7.37766 1.38704
176 1 H 13.9974 8.58806 2.64806
177 1 H 14.9191 7.13238 3.08232
178 1 H 12.4972 7.22355 3.85102
179 1 H 12.7216 5.91225 2.7158
180 1 H 11.691 7.15978 1.28496
181 2 C 16.7319 3.0983 2.82749
182 2 C -0.764499 3.80223 2.78163
183 4 O -0.652639 4.80548 3.76727
184 1 H 16.0523 3.90342 2.58213
185 1 H 16.6711 2.26929 2.10422
186 1 H 16.4194 2.87913 3.82985
187 1 H -0.517469 4.25014 1.81539
188 1 H -0.102619 2.95971 3.01162
189 1 H 17.5515 5.3757 3.81781
190 2 C 8.14401 -0.484631 7.93309
191 2 C 6.92608 0.235736 8.33558
192 4 O 6.81824 1.52272 7.80711
193 1 H 8.1426 17.4314 8.2694
194 1 H 8.26194 -0.333799 6.85037
195 1 H 9.01767 -0.028857 8.42263
196 1 H 6.75886 0.192625 9.44218
197 1 H 6.09496 -0.323007 7.90042
198 1 H 7.46372 2.10263 8.23019
199 2 C 11.2712 17.5427 14.5341
200 2 C 10.4028 16.5788 13.7394
201 4 O 11.1543 15.3798 13.4033
202 1 H 10.7856 -0.505493 14.8638
203 1 H 11.7546 17.0529 15.3617
204 1 H 12.0947 -1.12869 13.8741
205 1 H 9.98241 16.9757 12.8182
206 1 H 9.50903 16.2277 14.2513
207 1 H 10.5927 14.836 12.8326
208 2 C 6.19618 8.43169 3.06572
209 2 C 5.34622 9.61639 3.3306
210 4 O 3.93769 9.46965 3.05187
211 1 H 6.1179 8.16058 2.00458
212 1 H 7.21821 8.63442 3.33676
213 1 H 5.77535 7.59176 3.57056
214 1 H 5.57682 10.4063 2.65102
215 1 H 5.53363 9.8938 4.38143
216 1 H 3.62065 8.825 3.69813
217 2 C -0.173781 7.39722 14.9402
218 2 C 17.2874 7.60227 15.3243
219 4 O 16.6239 8.33963 14.3095
220 1 H -0.028261 7.03647 13.8946
221 1 H 0.407383 8.3321 14.9557
222 1 H 0.313973 6.65052 15.5044
223 1 H 17.1992 8.12048 16.2428
224 1 H 16.8467 6.64098 15.3615
225 1 H 16.3079 9.15327 14.6945
226 2 C 15.5035 6.48968 7.06651
227 2 C 15.308 5.51679 5.94288
228 4 O 15.5147 6.25092 4.67865
229 1 H 16.4428 7.00683 7.03025
230 1 H 14.6795 7.16097 7.29705
231 1 H 15.6107 5.87645 7.97647
232 1 H 14.3587 5.02017 5.8673
233 1 H 16.1361 4.8121 6.03007
234 1 H 16.3547 6.69771 4.83414
235 2 C -0.690578 17.3731 0.35049
236 2 C 17.3694 16.1561 0.518329
237 4 O 15.963 16.43 0.92196
238 1 H 17.7421 -0.823191 -0.323955
239 1 H -0.519005 17.8944 1.30099
240 1 H 0.303281 17.0967 -0.0601206
241 1 H 17.5501 15.3829 1.31537
242 1 H 17.3386 15.5959 -0.397275
243 1 H 0.416791 5.15 5.37277
244 2 C 13.1267 14.4186 5.16764
245 2 C 11.6516 14.3066 4.85926
246 4 O 10.8977 13.9183 6.12742
247 1 H 13.7761 15.3948 4.81903
248 1 H 13.2067 14.577 6.22619
249 1 H 13.7667 13.5778 4.92956
250 1 H 11.2239 13.6022 4.12278
251 1 H 11.1956 15.3054 4.64907
252 1 H 11.1961 13.1901 6.65519
253 2 C 2.51642 5.01878 17.4456
254 2 C 1.17552 4.3566 17.5477
255 4 O 0.502778 4.29469 16.2499
256 1 H 3.42529 4.42909 17.3845
257 1 H 2.63392 5.59182 16.5069
258 1 H 2.59559 5.80231 -0.763195
259 1 H 0.463677 4.97662 -0.779851
260 1 H 1.24321 3.3503 17.9667
261 1 H -0.430489 4.4545 16.4236
262 2 C -0.845664 14.1495 3.9787
263 2 C 0.214198 13.6111 2.97206
264 4 O 1.48735 13.4789 3.53553
265 1 H -0.625571 13.7141 5.02083
266 1 H -0.798745 15.2176 4.0074
267 1 H 17.0943 13.8898 3.64934
268 1 H 0.172545 14.2471 2.06816
269 1 H -0.0501482 12.5931 2.62654
270 1 H 1.95436 12.8196 2.99753
271 2 C 14.4671 0.0855893 16.1719
272 2 C 14.2193 1.55605 16.5754
273 4 O 14.8608 1.77179 17.7634
274 1 H 14.1592 -0.545235 16.9763
275 1 H 13.8985 -0.0491427 15.2446
276 1 H 15.4792 -0.0567024 15.924
277 1 H 13.1121 1.63038 16.7495
278 1 H 14.4488 2.23791 15.7744
279 1 H 15.6369 2.30105 17.5852
280 2 C 10.9512 0.984664 11.9895
281 2 C 11.4757 1.71719 10.7898
282 4 O 10.9618 3.03266 10.5928
283 1 H 9.87696 1.00328 11.7415
284 1 H 11.295 -0.0492417 12.0019
285 1 H 11.2282 1.51443 12.8842
286 1 H 11.253 1.15546 9.85439
287 1 H 12.5438 1.80839 10.7895
288 1 H 9.98029 2.93959 10.5046
289 2 C 6.64208 5.21954 9.18162
290 2 C 7.8627 4.76701 9.91428
291 4 O 7.95161 3.35415 10.1044
292 1 H 5.72676 5.04126 9.71977
293 1 H 6.7816 6.29795 8.97141
294 1 H 6.55549 4.65273 8.23579
295 1 H 7.95419 5.25568 10.9119
296 1 H 8.78265 4.99777 9.36133
297 1 H 7.14544 3.07438 10.5797
298 2 C 13.6686 9.94606 5.00619
299 2 C 12.9805 11.2089 5.59011
300 4 O 12.0198 11.0212 6.64055
301 1 H 14.3806 10.3473 4.2685
302 1 H 14.2148 9.44428 5.78511
303 1 H 12.9299 9.31114 4.56215
304 1 H 12.5119 11.7635 4.7901
305 1 H 13.7148 11.9253 5.96339
306 1 H 11.552 10.2456 6.36557
307 2 C 11.8142 8.3636 14.0661
308 2 C 12.7333 9.40944 13.3834
309 4 O 14.0317 9.37784 13.9582
310 1 H 11.9197 8.61643 15.1126
311 1 H 10.7466 8.39519 13.8229
312 1 H 12.1467 7.34362 13.8484
313 1 H 12.3033 10.383 13.5495
314 1 H 12.8445 9.3011 12.2883
315 1 H 14.5494 8.68122 13.5622
316 2 C 4.65981 12.3052 9.09895
317 2 C 3.58765 12.9529 8.22963
318 4 O 3.79634 14.3163 7.99358
319 1 H 4.58034 12.5268 10.1642
320 1 H 4.59956 11.2262 8.99126
321 1 H 5.6802 12.5568 8.78988
322 1 H 2.60158 12.7061 8.64297
323 1 H 3.61182 12.4335 7.24797
324 1 H 3.28472 14.4934 7.21692
325 2 C -0.424709 0.987423 9.66074
326 2 C -0.558337 1.77404 10.9542
327 4 O 0.222313 1.15432 11.9434
328 1 H -1.11064 0.14446 9.76067
329 1 H 18.1597 1.49361 8.78013
330 1 H 0.564149 0.650548 9.55544
331 1 H 17.3368 1.84638 11.284
332 1 H -0.165014 2.7788 10.7732
333 1 H 0.339895 1.82456 12.654
334 2 C 3.22219 5.3193 12.0201
335 2 C 2.6244 4.18904 12.8899
336 4 O 2.85602 4.47767 14.2769
337 1 H 3.14914 5.01643 10.984
338 1 H 2.68114 6.21152 12.1753
339 1 H 4.28885 5.60904 12.208
340 1 H 3.10171 3.22608 12.7455
341 1 H 1.53186 4.14733 12.7372
342 1 H 2.06623 4.17674 14.7573
343 2 C 7.61295 14.4989 16.2545
344 2 C 6.8859 13.4216 17.0032
345 4 O 5.51659 13.7494 16.7123
346 1 H 8.68789 14.446 16.3375
347 1 H 7.29657 14.5613 15.1716
348 1 H 7.40376 15.4929 16.8316
349 1 H 7.03381 13.5846 18.0452
350 1 H 7.17879 12.4562 16.5431
351 1 H 4.94777 12.9733 16.7587
352 2 C 3.99443 0.68527 11.0796
353 2 C 5.09394 1.25419 11.9748
354 4 O 5.32005 2.6221 11.7963
355 1 H 4.31103 0.783998 10.0295
356 1 H 3.93376 -0.416647 11.1914
357 1 H 3.00108 1.0766 11.2532
358 1 H 6.01604 0.669198 11.7326
359 1 H 4.86555 1.06157 13.0273
360 1 H 4.78599 2.95012 11.0479
361 2 C 10.3158 14.4897 9.5664
362 2 C 11.0712 15.7949 9.8732
363 4 O 12.2209 15.3718 10.5633
364 1 H 9.81574 14.1561 10.4517
365 1 H 9.75541 14.4758 8.639
366 1 H 11.1054 13.7607 9.34265
367 1 H 10.5444 16.5661 10.4024
368 1 H 11.3809 16.2129 8.92392
369 1 H 12.2372 15.7351 11.4538
370 2 C 12.8279 7.5714 9.69791
371 2 C 11.7814 6.95835 10.692
372 4 O 10.4653 7.39235 10.4213
373 1 H 13.2987 8.49378 10.0233
374 1 H 13.6534 6.92828 9.59603
375 1 H 12.4547 7.69985 8.68014
376 1 H 12.088 7.1777 11.7009
377 1 H 11.7989 5.81936 10.6079
378 1 H 10.4168 7.49575 9.45084
379 2 C 1.16423 7.73799 2.02933
380 2 C 2.29661 6.93365 2.58389
381 4 O 2.64164 7.16608 3.97046
382 1 H 1.18076 8.7473 2.40445
383 1 H 1.25746 7.82778 0.947083
384 1 H 0.199073 7.21023 2.14114
385 1 H 3.18301 7.16194 1.97078
386 1 H 2.08969 5.89109 2.43286
387 1 H 1.93652 6.80409 4.51748
388 2 C 14.3372 11.7015 10.3223
389 2 C 14.6949 13.192 10.5261
390 4 O 14.3558 14.0333 9.45757
391 1 H 14.5823 11.2728 9.35361
392 1 H 14.9425 11.1686 11.0825
393 1 H 13.307 11.5205 10.577
394 1 H 15.7649 13.3066 10.7164
395 1 H 14.1144 13.5143 11.4032
396 1 H 13.7366 14.6616 9.79701
397 2 C 1.09754 13.1234 11.7301
398 2 C 2.13363 12.3171 12.4739
399 4 O 1.54256 11.2402 13.2267
400 1 H 0.434789 13.5117 12.4644
401 1 H 1.55031 13.9591 11.1759
402 1 H 0.559024 12.5468 10.9683
403 1 H 2.62195 13.0157 13.2059
404 1 H 2.87085 11.9216 11.8196
405 1 H 2.27152 10.719 13.5422
406 2 C 3.72695 10.4703 17.4321
407 2 C 2.6652 11.5456 17.0819
408 4 O 3.02292 12.0715 15.7909
409 1 H 3.61064 9.68745 16.6735
410 1 H 4.76548 10.7604 17.4542
411 1 H 3.60162 9.9004 -0.573192
412 1 H 2.64114 12.1855 17.9557
413 1 H 1.68517 11.0659 16.8999
414 1 H 2.18907 12.3637 15.3814
415 2 C 9.85504 6.29463 5.9542
416 2 C 9.87507 7.92878 5.97499
417 4 O 10.1837 8.48823 7.27362
418 1 H 9.4998 6.07662 6.94678
419 1 H 9.16457 5.878 5.24477
420 1 H 10.8557 5.90078 5.78086
421 1 H 8.94803 8.32102 5.61082
422 1 H 10.661 8.17544 5.28555
423 1 H 9.48889 9.0166 7.63112
424 2 C 3.70762 14.0898 0.612823
425 2 C 4.11802 12.814 1.35719
426 4 O 2.994 11.9947 1.52342
427 1 H 2.66264 14.2411 0.783232
428 1 H 4.24528 14.9406 1.0151
429 1 H 3.98648 14.0324 -0.448511
430 1 H 4.65422 13.0531 2.29153
431 1 H 4.935 12.3413 0.728379
432 1 H 3.23958 11.1073 1.85945
433 2 C 1.22097 5.20445 8.66204
434 2 C 0.87997 5.93129 7.39159
435 4 O 1.13061 5.19952 6.02863
436 1 H 2.1496 4.69073 8.53893
437 1 H 1.39105 5.8687 9.51114
438 1 H 0.634414 4.49056 9.17173
439 1 H 1.65177 6.74964 7.26302
440 1 H -0.141758 6.27937 7.4309
441 1 H 1.50005 4.3116 6.249
442 2 C 14.1272 5.09716 17.6524
443 2 C 15.5821 4.91238 -0.780737
444 4 O 16.4656 4.32763 17.1874
445 1 H 13.3233 5.02141 -0.56713
446 1 H 13.9488 5.92872 17.0037
447 1 H 13.8151 4.28139 16.9811
448 1 H 15.6536 4.22103 0.0249963
449 1 H 15.9365 5.90479 -0.490018
450 1 H 15.9388 4.42691 16.3414
ITEM: TIMESTEP
6400
ITEM: NUMBER OF ATOMS
450
ITEM: BOX BOUNDS pp pp pp
-9.8427280707397635e-01 1.7909272807073805e+01
-9.8427280707397635e-01 1.7909272807073805e+01
-9.8427280707397635e-01 1.7909272807073805e+01
ITEM: ATOMS id type element x y z
1 2 C 7.2524 3.3092 1.98513
2 2 C 7.62483 1.87682 2.25194
3 4 O 8.73947 1.42102 1.3643
4 1 H 8.04595 4.05168 2.13485
5 1 H 6.90864 3.37297 0.945771
6 1 H 6.36967 3.51436 2.55482
7 1 H 6.73051 1.26704 2.06711
8 1 H 7.92182 1.75948 3.29403
9 1 H 8.40353 1.33214 0.475493
10 2 C 12.3168 10.901 17.3789
11 2 C 12.0914 12.3794 17.6028
12 4 O 10.968 12.763 -0.540792
13 1 H 11.3451 10.4147 17.2293
14 1 H 12.9096 10.7047 16.515
15 1 H 12.8414 10.446 -0.649593
16 1 H 11.8062 12.864 16.6814
17 1 H 12.9986 12.8854 -0.897069
18 1 H 11.1338 12.472 0.355804
19 2 C 10.489 4.59868 0.291355
20 2 C 9.94111 5.97941 0.0665035
21 4 O 10.9249 6.83706 -0.527285
22 1 H 11.1529 4.45487 1.14456
23 1 H 9.7344 3.77737 0.388913
24 1 H 11.057 4.35015 -0.627842
25 1 H 9.6029 6.4453 0.999902
26 1 H 9.12355 5.88795 -0.646061
27 1 H 10.5788 7.69099 -0.722312
28 2 C 16.6868 6.50694 11.2361
29 2 C 16.9941 7.74792 10.4069
30 4 O -0.643154 7.67116 9.78657
31 1 H 17.4543 6.37615 12.0003
32 1 H 15.8431 6.77548 11.8674
33 1 H 16.4867 5.69499 10.5245
34 1 H 16.9551 8.57255 11.1262
35 1 H 16.2121 7.8803 9.63158
36 1 H -0.180223 8.50752 9.9779
37 2 C 1.83913 16.886 13.3507
38 2 C 3.02935 16.9462 14.2677
39 4 O 3.63492 -0.961303 14.4771
40 1 H 1.57205 -0.974336 13.2703
41 1 H 1.91263 16.5334 12.385
42 1 H 1.12788 16.3775 13.9528
43 1 H 3.2588 15.9428 14.7901
44 1 H 15.6541 17.1106 0.820779
45 1 H 4.40313 3.10147 9.11864
46 2 C 7.47571 14.7446 5.93562
47 2 C 6.86611 13.4369 5.51515
48 4 O 5.89201 13.0008 6.40135
49 1 H 8.25511 15.0438 5.24603
50 1 H 6.72437 15.537 5.9349
51 1 H 7.8991 14.7233 6.92576
52 1 H 7.65993 12.6997 5.47513
53 1 H 6.46 13.4731 4.484
54 1 H 5.4085 13.7097 6.8414
55 2 C 16.4098 3.54465 13.7554
56 2 C 14.9196 3.82474 13.4692
57 4 O 14.5705 4.659 14.6092
58 1 H 16.7955 3.7834 14.7953
59 1 H 16.6386 2.45263 13.6026
60 1 H 16.9526 4.09939 12.9779
61 1 H 14.3882 2.89776 13.4588
62 1 H 14.672 4.48137 12.7074
63 1 H 13.6466 4.70728 14.8762
64 2 C 8.83983 11.2209 12.2253
65 2 C 9.78551 10.4488 11.34
66 4 O 9.10167 9.76249 10.3021
67 1 H 7.85086 10.8286 12.2488
68 1 H 9.13271 11.2226 13.2904
69 1 H 8.86949 12.2498 11.878
70 1 H 10.3161 9.66955 11.8579
71 1 H 10.5147 11.1281 10.8751
72 1 H 9.71169 8.99803 10.1815
73 2 C 5.94388 3.60664 5.50961
74 2 C 4.48259 3.92676 5.7493
75 4 O 4.02381 3.14309 6.84259
76 1 H 5.97744 2.52555 5.42601
77 1 H 6.18103 3.9558 4.49074
78 1 H 6.55137 4.05622 6.28759
79 1 H 3.79367 3.68617 4.92287
80 1 H 4.42127 5.00667 5.9595
81 1 H 4.80353 2.96387 7.39787
82 2 C 5.95731 8.67386 13.2568
83 2 C 5.53057 9.84642 14.0658
84 4 O 4.1534 9.96817 13.7289
85 1 H 5.46871 7.72498 13.7204
86 1 H 5.75595 8.70524 12.1534
87 1 H 6.99968 8.59144 13.5259
88 1 H 6.02959 10.7674 13.7977
89 1 H 5.72439 9.76564 15.1244
90 1 H 3.87175 10.4062 14.5365
91 2 C 10.5893 3.76737 14.288
92 2 C 10.3363 5.07203 14.9806
93 4 O 11.5371 5.73706 15.2234
94 1 H 11.4564 3.35878 14.7335
95 1 H 9.75235 3.11439 14.5523
96 1 H 10.7577 3.77415 13.2043
97 1 H 10.0601 4.87412 16.0157
98 1 H 9.6539 5.85866 14.4953
99 1 H 11.5105 6.10891 16.1192
100 2 C 4.83538 15.6644 11.8297
101 2 C 5.99392 15.1221 12.6301
102 4 O 7.06298 16.0708 12.5983
103 1 H 5.22036 16.0185 10.8439
104 1 H 4.08449 14.8695 11.7115
105 1 H 4.40821 16.573 12.3044
106 1 H 6.31292 14.242 12.1085
107 1 H 5.69983 14.9846 13.686
108 1 H 6.78303 16.8794 13.0452
109 2 C 3.6959 16.5087 5.06536
110 2 C 2.42937 16.0724 5.79399
111 4 O 2.10125 14.6699 5.83802
112 1 H 4.59309 16.001 5.45264
113 1 H 3.55387 16.4151 3.97637
114 1 H 3.90421 17.5464 5.13753
115 1 H 1.62006 16.6504 5.42324
116 1 H 2.56912 16.3438 6.83918
117 1 H 1.99509 14.3709 4.93811
118 2 C 2.76441 8.792 10.5423
119 2 C 1.93349 9.79253 9.83466
120 4 O 0.641663 10.0006 10.4199
121 1 H 2.36683 7.77113 10.643
122 1 H 3.76448 8.69226 10.1476
123 1 H 2.93256 9.12746 11.559
124 1 H 1.75159 9.64175 8.77586
125 1 H 2.42939 10.7351 9.91249
126 1 H 0.777864 10.1431 11.362
127 2 C 7.54702 -0.41773 16.8974
128 2 C 7.46171 -0.532385 15.3846
129 4 O 6.53282 17.3367 15.1039
130 1 H 8.32449 0.298657 17.1849
131 1 H 6.64143 -0.0803797 17.3595
132 1 H 7.82625 17.5143 17.3024
133 1 H 8.39117 -0.856215 14.9988
134 1 H 7.164 0.373792 14.8654
135 1 H 5.66566 17.6239 15.438
136 2 C 10.3794 11.0416 3.1285
137 2 C 9.39888 12.1743 3.55555
138 4 O 9.86065 13.4128 2.93731
139 1 H 11.3726 11.423 3.21071
140 1 H 10.1236 10.2041 3.7656
141 1 H 10.148 10.7042 2.15004
142 1 H 9.40153 12.2521 4.63135
143 1 H 8.40879 11.9576 3.09257
144 1 H 9.20592 14.0807 3.14742
145 2 C 6.38208 16.182 1.68882
146 2 C 7.39545 17.232 2.30158
147 4 O 8.66869 17.1871 1.7916
148 1 H 5.43503 16.4592 2.1041
149 1 H 6.21952 16.2581 0.591992
150 1 H 6.69774 15.1755 2.07541
151 1 H 7.42501 17.1958 3.41529
152 1 H 6.87569 -0.688142 2.1162
153 1 H 8.97507 -0.82538 1.5425
154 2 C -0.400367 0.849338 15.7768
155 2 C 1.08377 1.23038 15.9273
156 4 O 1.47032 1.73626 14.6019
157 1 H -0.460429 0.107294 14.9928
158 1 H -0.841066 0.46126 16.6896
159 1 H -0.951979 1.76224 15.5442
160 1 H 1.68757 0.363885 16.1483
161 1 H 1.24006 1.9734 16.6881
162 1 H 2.41314 1.91454 14.6095
163 2 C 17.2743 10.4189 5.57215
164 2 C -0.65621 9.25612 6.00932
165 4 O -0.667215 8.14986 5.0814
166 1 H 16.2689 10.0463 5.33691
167 1 H 17.2606 11.0831 6.45575
168 1 H 17.5851 10.9774 4.69901
169 1 H 17.8403 8.80603 6.94078
170 1 H 0.36981 9.63217 6.16587
171 1 H 0.197397 7.74567 4.97406
172 2 C 13.9377 7.54497 2.19493
173 2 C 12.648 7.15054 2.97725
174 4 O 11.5043 7.61556 2.28397
175 1 H 13.8741 7.15758 1.17751
176 1 H 14.1766 8.58767 2.09326
177 1 H 14.7195 7.00146 2.646
178 1 H 12.5 7.49008 4.00824
179 1 H 12.6298 6.03566 3.10624
180 1 H 11.6083 7.28227 1.36007
181 2 C 16.562 3.21932 3.12497
182 2 C 17.9042 3.80437 2.87765
183 4 O -0.459626 4.56464 3.97791
184 1 H 16.0552 4.1006 3.56739
185 1 H 16.1478 2.93477 2.18343
186 1 H 16.5687 2.36318 3.79974
187 1 H 17.8296 4.57078 2.11072
188 1 H -0.359099 2.93031 2.61986
189 1 H 17.6935 5.20708 4.1301
190 2 C 8.03823 -0.43285 8.00789
191 2 C 6.66802 0.288075 8.29324
192 4 O 6.66372 1.68009 7.98007
193 1 H 7.87415 17.3889 7.83509
194 1 H 8.45051 0.0368197 7.12154
195 1 H 8.76523 -0.316942 8.81171
196 1 H 6.38557 0.206518 9.34038
197 1 H 5.95569 -0.183971 7.63438
198 1 H 7.31635 2.07333 8.58348
199 2 C 11.2256 17.2486 14.6856
200 2 C 10.3248 16.3358 13.8717
201 4 O 11.0722 15.2765 13.2471
202 1 H 10.6299 -0.776038 14.9675
203 1 H 11.6296 16.8745 15.6328
204 1 H 11.9788 17.677 13.9978
205 1 H 9.91614 16.9237 13.0384
206 1 H 9.47614 15.9457 14.4309
207 1 H 10.7937 14.3986 13.4713
208 2 C 6.18282 8.26183 3.27618
209 2 C 5.62844 9.69559 3.26953
210 4 O 4.38322 9.75529 2.71955
211 1 H 5.72943 7.67999 2.48074
212 1 H 7.27397 8.35086 3.08089
213 1 H 6.067 7.67775 4.21807
214 1 H 6.21053 10.3093 2.56814
215 1 H 5.69673 10.171 4.24199
216 1 H 3.79866 9.28391 3.32034
217 2 C -0.350419 7.32259 15.0839
218 2 C 17.184 7.86868 15.0429
219 4 O 16.9138 8.57684 13.8171
220 1 H -0.154584 6.35617 14.5776
221 1 H 0.316909 8.10604 14.6815
222 1 H -0.0398455 7.13431 16.1416
223 1 H 16.935 8.46237 15.9573
224 1 H 16.4875 6.95893 15.1148
225 1 H 16.1067 9.0912 13.957
226 2 C 15.8263 6.49505 7.09457
227 2 C 15.6613 5.44957 6.01401
228 4 O 15.856 5.98462 4.70357
229 1 H 16.2467 7.41081 6.70549
230 1 H 14.8657 6.76938 7.54074
231 1 H 16.4539 6.23479 7.98102
232 1 H 14.6419 5.02999 6.05474
233 1 H 16.3757 4.64388 6.12821
234 1 H 15.9575 6.94136 4.74014
235 2 C -0.585308 17.3586 0.405027
236 2 C 17.4233 16.1506 0.5524
237 4 O 16.1942 16.4145 1.22623
238 1 H 17.8883 -0.929509 -0.327757
239 1 H -0.302706 17.8912 1.29699
240 1 H 0.337161 16.9446 0.0359308
241 1 H 17.7998 15.3515 1.15838
242 1 H 17.3292 15.6036 -0.409757
243 1 H 0.491874 4.85329 5.49308
244 2 C 13.1956 14.6041 5.45272
245 2 C 11.6964 14.8155 5.06955
246 4 O 10.8879 13.9542 5.82759
247 1 H 13.642 15.5513 5.29603
248 1 H 13.3159 14.4908 6.53919
249 1 H 13.7751 13.8637 4.92313
250 1 H 11.3518 14.6434 4.02381
251 1 H 11.4074 15.8526 5.38726
252 1 H 11.0089 13.0078 5.84248
253 2 C 2.6097 4.79332 17.3276
254 2 C 1.08972 4.83217 17.5624
255 4 O 0.529728 4.28966 16.3688
256 1 H 3.20198 3.90618 17.0748
257 1 H 2.71815 5.46281 16.5068
258 1 H 3.10248 5.2665 -0.696414
259 1 H 0.762269 5.83609 17.7035
260 1 H 0.850945 4.15217 -0.521355
261 1 H -0.408601 4.40944 16.3706
262 2 C -0.708112 14.0119 3.77059
263 2 C 0.149434 13.0766 2.98186
264 4 O 1.54083 13.329 3.26319
265 1 H -0.466876 13.9253 4.83497
266 1 H -0.464438 15.0731 3.6197
267 1 H 17.1198 13.9293 3.57068
268 1 H 0.0154826 13.2568 1.91116
269 1 H 0.0052707 12.0101 3.13898
270 1 H 2.15576 12.7217 2.81068
271 2 C 14.567 0.160759 16.241
272 2 C 14.3951 1.67658 16.423
273 4 O 14.9126 2.10973 17.6975
274 1 H 14.2408 -0.268551 17.188
275 1 H 14.0141 -0.186527 15.3566
276 1 H 15.6813 0.0318172 16.1154
277 1 H 13.3593 2.01098 16.3939
278 1 H 14.9203 2.2323 15.6024
279 1 H 15.6792 2.60363 17.4061
280 2 C 11.1266 1.31275 12.2783
281 2 C 11.4354 1.69219 10.8311
282 4 O 11.0959 3.06211 10.664
283 1 H 10.0968 1.60777 12.4199
284 1 H 11.1729 0.225952 12.2457
285 1 H 11.8175 1.71659 13.0079
286 1 H 10.8612 1.13556 10.0988
287 1 H 12.4873 1.51073 10.6273
288 1 H 10.3041 3.14185 10.1565
289 2 C 6.52378 5.21175 9.38783
290 2 C 7.84223 4.7924 10.0015
291 4 O 7.98869 3.35349 9.95618
292 1 H 5.67201 4.96045 10.0329
293 1 H 6.52189 6.27794 9.24454
294 1 H 6.398 4.6849 8.45644
295 1 H 8.05844 5.19084 10.9893
296 1 H 8.70488 5.13017 9.469
297 1 H 7.45581 3.04745 10.6903
298 2 C 13.5446 10.0823 5.15431
299 2 C 12.9508 11.2066 5.9428
300 4 O 12.0343 10.724 6.90457
301 1 H 14.1274 10.3984 4.27906
302 1 H 14.0787 9.41426 5.82342
303 1 H 12.5872 9.63343 4.81699
304 1 H 12.3784 11.7839 5.16654
305 1 H 13.5991 11.8854 6.43528
306 1 H 11.8687 9.79447 6.75148
307 2 C 11.8818 8.66727 14.039
308 2 C 12.8615 9.71461 13.6488
309 4 O 14.1906 9.34821 14.1058
310 1 H 11.7054 8.75681 15.1345
311 1 H 10.9448 8.81202 13.5188
312 1 H 12.2242 7.64059 13.8208
313 1 H 12.4674 10.6444 14.0447
314 1 H 12.8969 9.80702 12.5539
315 1 H 14.1862 8.37877 14.1777
316 2 C 4.61077 12.4962 9.44916
317 2 C 3.44117 12.8735 8.55144
318 4 O 3.7304 14.2526 8.16351
319 1 H 4.93817 13.345 10.0423
320 1 H 4.37008 11.7285 10.1663
321 1 H 5.4514 12.1204 8.85632
322 1 H 2.48479 12.7974 9.08427
323 1 H 3.44032 12.2861 7.65938
324 1 H 3.28384 14.3745 7.28006
325 2 C -0.2859 1.10279 9.69137
326 2 C -0.717457 1.68972 11.0474
327 4 O 0.149032 0.988138 12.0264
328 1 H -0.530378 0.0355546 9.55415
329 1 H -0.747796 1.77431 8.96856
330 1 H 0.855952 1.22992 9.61701
331 1 H 17.1528 1.50892 11.3526
332 1 H -0.565265 2.78293 11.0802
333 1 H 0.354406 1.5465 12.7678
334 2 C 3.41996 4.97754 12.2654
335 2 C 2.46357 4.14759 13.0201
336 4 O 2.51489 4.35885 14.4249
337 1 H 3.27636 4.77106 11.1794
338 1 H 3.1772 6.05032 12.3262
339 1 H 4.47017 4.89174 12.563
340 1 H 2.70983 3.11402 12.8331
341 1 H 1.47283 4.40326 12.6358
342 1 H 1.7789 3.79853 14.7218
343 2 C 7.78308 14.3985 16.3019
344 2 C 6.92556 13.5112 17.251
345 4 O 5.52541 13.6581 17.2652
346 1 H 8.81678 14.2504 16.5479
347 1 H 7.68671 13.9972 15.2904
348 1 H 7.58812 15.3897 16.3845
349 1 H 7.2014 13.863 -0.656719
350 1 H 7.22399 12.5313 16.9269
351 1 H 5.19432 13.6519 16.3644
352 2 C 3.70004 0.396081 10.9266
353 2 C 4.92621 0.895314 11.7323
354 4 O 5.14364 2.35759 11.7197
355 1 H 3.783 0.654801 9.89615
356 1 H 3.59211 -0.691784 10.9704
357 1 H 2.76222 0.75921 11.3673
358 1 H 5.83175 0.400069 11.4296
359 1 H 4.68843 0.685654 12.7641
360 1 H 4.6239 2.72723 11.001
361 2 C 10.1398 14.6191 9.76714
362 2 C 11.1186 15.7776 9.95236
363 4 O 12.234 15.5647 10.8259
364 1 H 9.84319 14.241 10.7446
365 1 H 9.35964 15.017 9.12385
366 1 H 10.5487 13.8084 9.15576
367 1 H 10.5832 16.6813 10.3012
368 1 H 11.5309 16.0295 8.94756
369 1 H 11.8537 15.5752 11.7005
370 2 C 12.6244 7.5032 9.61343
371 2 C 11.8732 6.68085 10.5835
372 4 O 10.4373 7.00187 10.4525
373 1 H 12.282 8.53848 9.56674
374 1 H 13.716 7.57058 9.81176
375 1 H 12.6029 7.00214 8.62863
376 1 H 12.0941 7.03198 11.5894
377 1 H 12.0647 5.63787 10.4935
378 1 H 10.2341 6.99961 9.50123
379 2 C 1.14652 8.05005 2.31152
380 2 C 2.1596 6.87772 2.52172
381 4 O 2.8165 7.15513 3.8
382 1 H 1.6703 9.02106 2.33195
383 1 H 0.771378 7.98236 1.29012
384 1 H 0.340358 8.0849 3.04257
385 1 H 2.89871 6.95525 1.69552
386 1 H 1.67275 5.89706 2.54787
387 1 H 3.51623 6.5057 3.8866
388 2 C 14.0062 11.7147 10.2871
389 2 C 14.6435 13.1031 10.5314
390 4 O 14.1664 13.9744 9.50056
391 1 H 14.4755 11.1799 9.45541
392 1 H 14.1193 11.1597 11.2153
393 1 H 12.9279 11.8708 10.0807
394 1 H 15.7399 13.0592 10.5344
395 1 H 14.3457 13.4489 11.5359
396 1 H 13.6624 14.6892 9.943
397 2 C 0.834105 13.07 11.6487
398 2 C 2.06059 12.461 12.2767
399 4 O 1.81047 11.181 12.8092
400 1 H 0.0578953 13.0892 12.4544
401 1 H 1.06157 14.1082 11.4578
402 1 H 0.430122 12.5981 10.7369
403 1 H 2.3658 13.1217 13.0713
404 1 H 2.89888 12.4229 11.537
405 1 H 2.63409 10.8331 13.2183
406 2 C 3.53803 10.5958 17.5511
407 2 C 2.62891 11.6334 16.9835
408 4 O 3.21331 12.1226 15.7667
409 1 H 3.52693 9.67128 16.9512
410 1 H 4.55579 10.9346 17.7452
411 1 H 3.25081 10.3374 -0.341614
412 1 H 2.50998 12.3015 17.8287
413 1 H 1.65001 11.267 16.6639
414 1 H 2.45821 12.4972 15.32
415 2 C 10.1188 6.42171 5.88482
416 2 C 9.71419 7.82424 6.02399
417 4 O 10.2664 8.294 7.26441
418 1 H 9.31577 5.78863 6.30051
419 1 H 10.1537 6.20188 4.80582
420 1 H 11.105 6.24884 6.28818
421 1 H 8.61248 7.88718 6.09399
422 1 H 10.0019 8.35555 5.08132
423 1 H 10.0218 9.20939 7.37341
424 2 C 3.54448 14.1027 0.64537
425 2 C 4.24077 12.8037 1.05357
426 4 O 3.29407 11.9235 1.66556
427 1 H 2.48575 14.0237 0.999456
428 1 H 3.77204 14.9372 1.29774
429 1 H 3.58091 14.2142 -0.411071
430 1 H 4.97071 13.0442 1.82029
431 1 H 4.73789 12.3675 0.188474
432 1 H 3.71539 11.0878 1.89458
433 2 C 1.31349 5.07442 8.59002
434 2 C 0.969809 5.94735 7.39591
435 4 O 1.14723 5.02096 6.24986
436 1 H 2.42806 4.86318 8.69503
437 1 H 1.07384 5.37798 9.58997
438 1 H 0.881909 4.07824 8.51445
439 1 H 1.55516 6.8536 7.08684
440 1 H -0.0852952 6.09611 7.3464
441 1 H 1.97678 4.606 6.14593
442 2 C 14.1087 5.31089 17.5179
443 2 C 15.506 4.96322 -0.945877
444 4 O 16.2752 4.45741 16.8706
445 1 H 13.5494 5.9987 -0.717286
446 1 H 14.0647 5.82946 16.5641
447 1 H 13.5453 4.38866 17.4095
448 1 H 15.5083 4.21572 -0.124172
449 1 H 15.9123 5.87692 -0.525571
450 1 H 15.888 4.80023 16.0973
ITEM: TIMESTEP
6500
ITEM: NUMBER OF ATOMS
450
ITEM: BOX BOUNDS pp pp pp
-9.4943339604112076e-01 1.7874433396040949e+01
-9.4943339604112076e-01 1.7874433396040949e+01
-9.4943339604112076e-01 1.7874433396040949e+01
ITEM: ATOMS id type element x y z
1 2 C 7.27174 3.41831 1.32328
2 2 C 7.77257 2.00157 1.67826
3 4 O 8.68579 1.56294 0.757465
4 1 H 7.97918 4.19781 1.51007
5 1 H 7.03943 3.38217 0.258175
6 1 H 6.35565 3.6707 1.87604
7 1 H 6.90165 1.34086 1.63516
8 1 H 8.26725 1.97364 2.64971
9 1 H 8.30477 1.56543 -0.111691
10 2 C 12.0819 10.8861 17.5699
11 2 C 12.1212 12.3886 17.5347
12 4 O 10.8804 12.9909 -0.78282
13 1 H 11.3589 10.5198 16.8473
14 1 H 13.0378 10.5136 17.1919
15 1 H 11.7914 10.5189 -0.265263
16 1 H 12.2081 12.7955 16.5272
17 1 H 12.9868 12.7325 -0.730994
18 1 H 10.9834 12.9206 0.175203
19 2 C 10.4494 4.80565 0.0145035
20 2 C 9.83859 6.11258 -0.469822
21 4 O 10.8971 7.07493 -0.573709
22 1 H 10.9071 4.99368 1.00161
23 1 H 9.72513 4.05769 0.249914
24 1 H 11.1522 4.37473 -0.689948
25 1 H 9.10193 6.35089 0.311523
26 1 H 9.33621 5.98956 17.3829
27 1 H 10.4992 7.89312 -0.836387
28 2 C 16.7534 6.59717 11.1066
29 2 C 17.0705 7.81999 10.2607
30 4 O -0.488963 7.56037 9.64281
31 1 H 17.2598 6.63593 12.0707
32 1 H 15.6847 6.44344 11.1922
33 1 H 17.1339 5.80633 10.4509
34 1 H 17.2032 8.67912 10.9071
35 1 H 16.3361 8.01951 9.49346
36 1 H 0.0602034 8.35239 9.74313
37 2 C 1.78181 16.6845 13.6763
38 2 C 3.23274 16.9452 14.1027
39 4 O 3.67145 -0.833419 14.4945
40 1 H 1.27959 17.6475 13.4981
41 1 H 1.64824 15.9581 12.8116
42 1 H 1.40603 16.2739 14.633
43 1 H 3.83545 15.9935 14.1513
44 1 H 15.9216 17.0745 0.956702
45 1 H 4.10346 3.14729 9.45782
46 2 C 7.4399 14.624 5.98326
47 2 C 6.83479 13.2649 5.6716
48 4 O 5.73413 13.0033 6.51934
49 1 H 8.43652 14.7468 5.55349
50 1 H 6.85566 15.4529 5.55406
51 1 H 7.47 14.7752 7.0701
52 1 H 7.58996 12.5164 5.83994
53 1 H 6.4901 13.2236 4.63949
54 1 H 5.20559 13.797 6.64975
55 2 C 16.4047 3.25267 13.5719
56 2 C 15.0516 3.93471 13.4297
57 4 O 14.7423 4.81238 14.484
58 1 H 16.5939 3.30082 14.615
59 1 H 16.3948 2.19398 13.2913
60 1 H 17.1542 3.79322 13.0715
61 1 H 14.2486 3.11582 13.3292
62 1 H 14.9298 4.64716 12.577
63 1 H 13.7837 4.89812 14.5384
64 2 C 8.7457 11.1806 12.0412
65 2 C 9.68965 10.1908 11.3171
66 4 O 9.00679 9.79031 10.0826
67 1 H 7.72051 10.7479 12.1522
68 1 H 9.1072 11.4274 13.028
69 1 H 8.6801 12.1175 11.5055
70 1 H 9.8534 9.27349 11.8725
71 1 H 10.6561 10.5891 11.027
72 1 H 9.08252 8.83564 10.109
73 2 C 5.84382 3.57184 5.42917
74 2 C 4.38997 3.70898 5.94191
75 4 O 4.13415 3.27341 7.25077
76 1 H 6.06855 2.53002 5.2452
77 1 H 5.94394 4.07128 4.46922
78 1 H 6.45864 3.93803 6.24103
79 1 H 3.67822 3.10637 5.39591
80 1 H 4.0623 4.75561 5.82256
81 1 H 4.888 2.8007 7.60069
82 2 C 5.89864 8.45157 13.332
83 2 C 5.57797 9.80412 14.0417
84 4 O 4.14483 10.2016 13.9618
85 1 H 5.20089 7.73877 13.6305
86 1 H 5.76881 8.68883 12.3096
87 1 H 6.92685 8.09272 13.4666
88 1 H 6.16808 10.6783 13.6802
89 1 H 5.79628 9.78853 15.1365
90 1 H 4.10103 10.706 14.7866
91 2 C 10.473 3.80914 14.2253
92 2 C 10.3073 5.10092 15.0716
93 4 O 11.5838 5.78976 15.2102
94 1 H 11.2907 3.09821 14.5178
95 1 H 9.47108 3.31734 14.1373
96 1 H 10.6741 4.33249 13.2635
97 1 H 9.85617 4.97979 16.0408
98 1 H 9.81735 5.77866 14.4072
99 1 H 11.6265 6.26698 16.0023
100 2 C 4.87437 15.5137 11.7894
101 2 C 6.30142 15.1545 12.4028
102 4 O 7.19263 16.2548 12.4175
103 1 H 4.89358 15.2871 10.7611
104 1 H 4.06246 14.9559 12.2701
105 1 H 4.63122 16.5465 11.9114
106 1 H 6.72583 14.3182 11.8209
107 1 H 6.23666 14.8659 13.4648
108 1 H 7.20002 16.6044 13.3178
109 2 C 3.64098 16.5118 5.01413
110 2 C 2.28956 15.9023 5.43717
111 4 O 2.41055 14.4686 5.52954
112 1 H 4.47459 16.263 5.70178
113 1 H 3.94945 16.1233 4.03367
114 1 H 3.75852 17.6207 4.92001
115 1 H 1.41156 16.2263 4.84444
116 1 H 2.11375 16.2322 6.47544
117 1 H 2.14529 14.0704 4.65667
118 2 C 2.86703 8.52134 10.4999
119 2 C 2.24486 9.67811 9.76013
120 4 O 0.906062 9.88995 10.1935
121 1 H 2.30919 7.60553 10.369
122 1 H 3.92558 8.34748 10.2397
123 1 H 2.95249 8.6518 11.5871
124 1 H 2.25808 9.52586 8.67458
125 1 H 2.80945 10.586 9.89471
126 1 H 0.94485 10.2105 11.101
127 2 C 7.71879 -0.313347 16.7657
128 2 C 7.26572 -0.658103 15.3326
129 4 O 6.28133 17.1534 15.0761
130 1 H 8.12316 0.6695 16.6945
131 1 H 6.8675 -0.197419 17.4889
132 1 H 8.39308 17.7717 17.2569
133 1 H 8.16762 17.8015 14.7981
134 1 H 6.96989 0.289268 14.8611
135 1 H 5.40088 17.5304 15.1292
136 2 C 10.3751 10.9316 3.05482
137 2 C 9.70233 12.1495 3.70014
138 4 O 10.1837 13.3371 3.07291
139 1 H 11.4308 10.9586 3.39098
140 1 H 9.86211 10.0318 3.36729
141 1 H 10.3399 11.0016 1.91978
142 1 H 9.74537 12.1567 4.78409
143 1 H 8.64345 12.0931 3.47053
144 1 H 10.1037 13.992 3.76838
145 2 C 6.10211 16.2622 1.52782
146 2 C 7.02581 17.1699 2.21842
147 4 O 8.34262 16.8764 1.68826
148 1 H 5.06863 16.3771 1.8354
149 1 H 6.08625 16.5618 0.496586
150 1 H 6.45241 15.3155 1.79442
151 1 H 7.03493 16.9741 3.27882
152 1 H 6.61497 -0.690772 2.16886
153 1 H 8.87921 17.6474 1.65449
154 2 C -0.348754 0.977062 16.164
155 2 C 1.10179 1.25446 15.9365
156 4 O 1.26217 1.79683 14.6452
157 1 H -0.684402 0.178251 15.4815
158 1 H -0.422108 0.541244 17.1414
159 1 H -0.957002 1.87874 16.0667
160 1 H 1.68461 0.329499 16.0223
161 1 H 1.42713 2.00303 16.6768
162 1 H 2.08103 2.29603 14.6275
163 2 C 17.1598 10.328 5.513
164 2 C -0.696695 9.30561 5.97687
165 4 O -0.836108 8.1549 5.13639
166 1 H 16.1323 9.99773 5.67909
167 1 H 17.4056 11.3088 5.90462
168 1 H 17.3223 10.3891 4.44886
169 1 H 18.0676 8.97336 6.98863
170 1 H 0.275434 9.71082 5.73777
171 1 H -0.108324 7.55691 5.36493
172 2 C 13.7035 7.63426 1.99115
173 2 C 12.5994 7.1457 2.91042
174 4 O 11.3135 7.75057 2.54857
175 1 H 13.5447 7.13108 1.04694
176 1 H 13.6637 8.72704 1.81657
177 1 H 14.6894 7.27257 2.33779
178 1 H 12.7898 7.2831 3.97332
179 1 H 12.5773 6.05193 2.74671
180 1 H 11.1643 7.6023 1.61527
181 2 C 16.4649 3.15891 3.35736
182 2 C 17.7694 3.93676 3.03451
183 4 O -0.572373 4.54284 4.21606
184 1 H 15.6871 3.90219 3.4704
185 1 H 16.1787 2.61962 2.43351
186 1 H 16.7056 2.37053 4.11781
187 1 H 17.6267 4.79376 2.3166
188 1 H -0.393132 3.2815 2.51739
189 1 H 17.4651 5.1161 4.27875
190 2 C 7.8397 -0.181663 8.0925
191 2 C 6.41335 0.3853 8.12623
192 4 O 6.37947 1.83553 8.24356
193 1 H 7.78059 17.6043 8.42198
194 1 H 8.34641 -0.139568 7.13942
195 1 H 8.37901 0.399705 8.8412
196 1 H 5.82329 -0.0491187 8.91061
197 1 H 5.9479 0.143606 7.14842
198 1 H 7.06886 2.08268 8.86891
199 2 C 11.1648 16.915 14.7983
200 2 C 10.2057 16.165 13.9765
201 4 O 10.8519 15.0445 13.3918
202 1 H 10.731 -0.999285 15.2526
203 1 H 11.5506 16.3147 15.6279
204 1 H 11.9743 17.2567 14.1659
205 1 H 9.90859 16.8089 13.1382
206 1 H 9.3584 15.8727 14.6051
207 1 H 11.0041 14.342 14.0072
208 2 C 6.36478 8.15449 3.59232
209 2 C 6.10229 9.59802 3.10746
210 4 O 4.68146 9.73839 2.62507
211 1 H 6.47907 7.54653 2.7132
212 1 H 7.21514 7.99638 4.24025
213 1 H 5.54754 7.8222 4.22881
214 1 H 6.73716 9.88689 2.26023
215 1 H 6.32544 10.3612 3.87618
216 1 H 4.12804 9.63853 3.41376
217 2 C -0.595146 7.31395 15.1142
218 2 C 17.0338 8.2458 14.7679
219 4 O 17.2292 8.66508 13.4175
220 1 H -0.467447 6.5609 14.3985
221 1 H 0.277678 7.89669 15.1795
222 1 H -0.699647 6.81153 16.0893
223 1 H 16.9422 9.10302 15.4136
224 1 H 16.1165 7.74014 14.9002
225 1 H 16.4964 9.22076 13.125
226 2 C 16.0621 6.48449 7.21741
227 2 C 16.1504 5.41107 6.13632
228 4 O 16.2928 5.97446 4.86676
229 1 H 16.9158 7.20104 7.16095
230 1 H 15.2049 7.12961 6.96821
231 1 H 15.9815 6.11602 8.21728
232 1 H 15.1921 4.88509 6.16688
233 1 H 16.8886 4.60934 6.30705
234 1 H 16.6126 6.88769 4.87403
235 2 C -0.466535 17.3261 0.481782
236 2 C 17.4499 16.0868 0.616799
237 4 O 16.4153 16.4568 1.48715
238 1 H 17.775 -0.587697 0.078645
239 1 H -0.120453 17.4529 1.5364
240 1 H 0.431862 17.1117 -0.145112
241 1 H -0.776506 15.2506 0.990409
242 1 H 16.9785 15.8554 -0.380998
243 1 H 0.742257 4.61591 5.58272
244 2 C 13.2346 14.9734 5.84321
245 2 C 11.8256 15.3304 5.51063
246 4 O 10.8295 14.1873 5.63818
247 1 H 13.7793 15.8017 5.19701
248 1 H 13.5183 15.0778 6.9635
249 1 H 13.5104 13.946 5.32899
250 1 H 11.7844 15.4977 4.46618
251 1 H 11.4589 16.1864 5.99154
252 1 H 11.1504 13.2782 5.56779
253 2 C 2.57451 4.71027 17.5499
254 2 C 1.12245 5.17141 17.5359
255 4 O 0.243465 4.41702 16.65
256 1 H 2.5465 3.76409 17.0042
257 1 H 3.2236 5.37098 16.9977
258 1 H 2.91735 4.35546 -0.296849
259 1 H 1.05424 6.26523 17.2705
260 1 H 0.793481 5.15331 -0.229485
261 1 H -0.690694 4.67819 16.8703
262 2 C -0.621935 13.8026 3.52728
263 2 C 0.291187 12.7015 3.14867
264 4 O 1.61909 13.2911 3.20433
265 1 H -0.736687 13.9113 4.56883
266 1 H -0.345022 14.8185 3.18909
267 1 H 17.1866 13.5794 3.1741
268 1 H 0.14805 12.3579 2.11441
269 1 H 0.238311 11.826 3.77758
270 1 H 2.31814 12.7457 2.83887
271 2 C 14.6347 0.105806 16.2534
272 2 C 14.5071 1.66166 16.3426
273 4 O 15.0293 2.22756 17.5724
274 1 H 13.9355 -0.384497 16.92
275 1 H 14.4025 -0.132225 15.2507
276 1 H 15.6736 -0.0947654 16.5435
277 1 H 13.48 2.04799 16.2827
278 1 H 15.068 2.10137 15.5301
279 1 H 15.7385 2.8305 17.291
280 2 C 11.3601 1.27496 12.3634
281 2 C 11.2507 1.72538 10.8657
282 4 O 11.138 3.1455 10.6348
283 1 H 10.4154 1.34911 12.8928
284 1 H 11.7147 0.244953 12.3235
285 1 H 12.0731 1.94764 12.8604
286 1 H 10.422 1.35011 10.2867
287 1 H 12.2063 1.37052 10.4139
288 1 H 10.2911 3.46258 10.9295
289 2 C 6.41195 5.19652 9.67728
290 2 C 7.83306 4.68149 9.88644
291 4 O 7.88351 3.24896 10.1228
292 1 H 5.76496 4.69733 10.4258
293 1 H 6.33447 6.25338 9.9096
294 1 H 6.0442 4.97815 8.68451
295 1 H 8.36598 5.23127 10.651
296 1 H 8.44066 4.75605 8.98112
297 1 H 7.24948 3.09642 10.8322
298 2 C 13.4182 9.99421 5.25965
299 2 C 12.8866 11.014 6.32646
300 4 O 11.9483 10.5302 7.26184
301 1 H 14.2176 10.5244 4.79455
302 1 H 13.7823 9.07155 5.71245
303 1 H 12.6811 9.75159 4.47357
304 1 H 12.4616 11.8355 5.78392
305 1 H 13.7485 11.3586 6.93681
306 1 H 11.739 9.59793 7.0145
307 2 C 11.8045 9.06871 14.1975
308 2 C 13.0982 9.86053 13.8039
309 4 O 14.2657 9.331 14.3239
310 1 H 11.7848 8.63205 15.1806
311 1 H 10.9578 9.7036 14.0048
312 1 H 11.7398 8.18979 13.5901
313 1 H 12.964 10.8553 14.2716
314 1 H 13.1119 9.98523 12.7378
315 1 H 14.4321 8.40631 14.0893
316 2 C 4.69158 12.649 9.78941
317 2 C 3.42874 12.9648 9.02102
318 4 O 3.72366 13.9547 8.03732
319 1 H 4.89264 13.4022 10.5526
320 1 H 4.66753 11.6646 10.289
321 1 H 5.50162 12.6866 9.074
322 1 H 2.6979 13.3803 9.69276
323 1 H 2.9791 12.0989 8.50256
324 1 H 3.14584 13.864 7.29473
325 2 C -0.164449 1.32145 9.79229
326 2 C -0.502846 1.61185 11.2386
327 4 O 0.127691 0.728378 12.1625
328 1 H 0.270316 0.359086 9.7148
329 1 H 17.8038 1.56154 9.18306
330 1 H 0.573712 2.04452 9.49971
331 1 H 17.2553 1.54535 11.4979
332 1 H -0.279388 2.6335 11.512
333 1 H 0.450758 1.22752 12.9252
334 2 C 3.58604 4.79228 12.4026
335 2 C 2.23308 4.185 12.8548
336 4 O 2.31223 4.3389 14.2736
337 1 H 3.72468 5.02758 11.3605
338 1 H 3.77268 5.81906 12.8232
339 1 H 4.33922 4.12711 12.7037
340 1 H 2.14215 3.13344 12.497
341 1 H 1.33052 4.64103 12.3784
342 1 H 1.46234 4.04479 14.6001
343 2 C 7.85913 14.168 16.3828
344 2 C 7.08984 13.5055 17.5519
345 4 O 5.69491 13.6994 17.374
346 1 H 9.00347 13.9595 16.4144
347 1 H 7.51015 13.6445 15.4894
348 1 H 7.54701 15.2394 16.2868
349 1 H 7.47944 13.9115 -0.303955
350 1 H 7.45116 12.4451 17.5927
351 1 H 5.39908 12.9475 16.8562
352 2 C 3.50588 0.380663 10.8325
353 2 C 4.78324 0.544498 11.5603
354 4 O 5.13569 1.92077 11.4661
355 1 H 3.50622 0.866271 9.8278
356 1 H 3.15074 -0.63334 10.8222
357 1 H 2.72625 0.921522 11.4058
358 1 H 5.62879 -0.0240147 11.1796
359 1 H 4.64482 0.271372 12.6174
360 1 H 4.33191 2.40741 11.3573
361 2 C 10.0621 14.7715 9.97653
362 2 C 11.0668 15.8981 9.96453
363 4 O 12.2508 15.6639 10.7896
364 1 H 9.65007 14.7286 11.0064
365 1 H 9.23251 15.0776 9.31433
366 1 H 10.4909 13.8125 9.71627
367 1 H 10.5515 16.7743 10.3412
368 1 H 11.4616 16.1218 8.99763
369 1 H 11.9423 15.452 11.7106
370 2 C 12.6022 7.46281 9.54155
371 2 C 11.7858 6.59903 10.5085
372 4 O 10.3822 6.5852 10.2697
373 1 H 12.2852 8.49713 9.62905
374 1 H 13.6906 7.37924 9.73242
375 1 H 12.4868 7.2055 8.50871
376 1 H 11.8591 6.98523 11.5416
377 1 H 12.1084 5.55034 10.473
378 1 H 10.3061 6.28473 9.36665
379 2 C 1.255 8.26432 2.34716
380 2 C 1.98671 6.97967 2.61398
381 4 O 2.97782 7.08097 3.61663
382 1 H 1.8367 8.9817 1.76123
383 1 H 0.329127 8.07817 1.80786
384 1 H 1.14324 8.80432 3.26459
385 1 H 2.44298 6.66065 1.7111
386 1 H 1.29961 6.19059 2.94001
387 1 H 3.80303 7.11617 3.12924
388 2 C 13.7086 11.6648 10.274
389 2 C 14.4455 12.9731 10.4662
390 4 O 14.0721 13.9832 9.51056
391 1 H 13.6823 11.5514 9.20322
392 1 H 14.1411 10.8229 10.7811
393 1 H 12.6684 11.8205 10.5439
394 1 H 15.5195 12.8157 10.3385
395 1 H 14.3524 13.315 11.4876
396 1 H 13.3016 14.472 9.86628
397 2 C 0.633801 13.1212 11.6098
398 2 C 2.00045 12.7067 12.1378
399 4 O 1.94846 11.2696 12.2763
400 1 H -0.146264 12.9163 12.3376
401 1 H 0.603165 14.1697 11.3753
402 1 H 0.386998 12.514 10.7619
403 1 H 2.29301 13.1846 13.1121
404 1 H 2.79805 13.0182 11.4584
405 1 H 2.49684 10.9447 12.999
406 2 C 3.39696 10.5224 17.4964
407 2 C 2.64428 11.6393 16.8135
408 4 O 3.39572 12.0393 15.6077
409 1 H 3.28877 9.57606 16.9991
410 1 H 4.48063 10.7066 17.6076
411 1 H 3.03941 10.4394 -0.308448
412 1 H 2.64609 12.4119 17.5814
413 1 H 1.58938 11.5145 16.5276
414 1 H 2.83786 12.5628 15.0575
415 2 C 10.3566 6.47312 5.6973
416 2 C 9.63558 7.75032 6.20206
417 4 O 10.3406 8.22758 7.32131
418 1 H 9.91128 5.50306 5.93685
419 1 H 10.4223 6.51439 4.60342
420 1 H 11.3528 6.43379 6.13745
421 1 H 8.62153 7.64516 6.57817
422 1 H 9.60939 8.456 5.39739
423 1 H 9.90201 8.95886 7.80754
424 2 C 3.31852 14.2379 0.761287
425 2 C 4.19375 13.0322 1.07375
426 4 O 3.42909 12.0268 1.76542
427 1 H 2.27272 14.0229 0.427817
428 1 H 3.10924 14.8963 1.65264
429 1 H 3.76627 14.7575 -0.0873866
430 1 H 5.05476 13.3087 1.73051
431 1 H 4.57691 12.6943 0.16956
432 1 H 3.88194 11.1691 1.90571
433 2 C 1.42191 5.07245 8.61465
434 2 C 0.934331 5.55122 7.33779
435 4 O 1.46819 4.87438 6.21731
436 1 H 2.47415 4.98026 8.86715
437 1 H 1.09627 5.83362 9.34631
438 1 H 0.824263 4.18412 8.92233
439 1 H 0.97314 6.59912 7.14817
440 1 H -0.164489 5.39366 7.29328
441 1 H 2.24711 5.36354 5.7856
442 2 C 14.1215 5.62086 17.6581
443 2 C 15.6034 5.50985 17.8523
444 4 O 16.1117 4.63881 16.7661
445 1 H 13.6558 5.8397 -0.202231
446 1 H 13.8438 6.5302 17.0591
447 1 H 13.7932 4.6611 17.254
448 1 H 15.7788 5.02772 -0.0225815
449 1 H 15.9969 6.53117 -0.937547
450 1 H 15.7093 4.96496 15.9245
ITEM: TIMESTEP
6600
ITEM: NUMBER OF ATOMS
450
ITEM: BOX BOUNDS pp pp pp
-9.2562223319450432e-01 1.7850622233194336e+01
-9.2562223319450432e-01 1.7850622233194336e+01
-9.2562223319450432e-01 1.7850622233194336e+01
ITEM: ATOMS id type element x y z
1 2 C 7.20353 3.59199 0.711949
2 2 C 7.69658 2.20164 1.06856
3 4 O 8.74265 1.68045 0.205687
4 1 H 8.04793 4.27766 0.73756
5 1 H 6.66955 3.64487 -0.235979
6 1 H 6.60249 3.95405 1.56547
7 1 H 6.88093 1.48063 1.05147
8 1 H 8.09444 2.20852 2.08749
9 1 H 8.46077 0.809346 -0.0789067
10 2 C 11.7557 10.9237 17.7772
11 2 C 12.1091 12.4387 17.6484
12 4 O 10.8846 13.1393 17.6789
13 1 H 11.0765 10.6104 16.9859
14 1 H 12.6617 10.2838 17.7176
15 1 H 11.2153 10.8144 -0.0722196
16 1 H 12.6875 12.7069 16.7002
17 1 H 12.8342 12.6607 -0.335497
18 1 H 10.8357 13.5981 -0.246908
19 2 C 10.5349 5.05198 -0.346632
20 2 C 9.78079 6.37428 -0.589675
21 4 O 10.8524 7.35839 -0.664615
22 1 H 10.7537 5.04064 0.724676
23 1 H 9.92139 4.20196 -0.527761
24 1 H 11.481 4.96189 -0.860184
25 1 H 9.12618 6.44712 0.25828
26 1 H 9.14066 6.36386 17.3031
27 1 H 10.4027 8.18827 17.8582
28 2 C 16.6949 6.48599 10.9055
29 2 C 17.1359 7.76613 10.1494
30 4 O -0.394439 7.60436 9.44927
31 1 H 17.5397 6.12287 11.4753
32 1 H 15.7743 6.75351 11.4448
33 1 H 16.3945 5.68433 10.249
34 1 H 17.1669 8.62071 10.8775
35 1 H 16.4036 8.10478 9.38947
36 1 H 0.180938 8.36908 9.59233
37 2 C 1.79299 16.6285 13.9927
38 2 C 3.17722 16.9259 14.4219
39 4 O 3.69677 -0.720056 14.4829
40 1 H 1.14746 17.4168 13.6384
41 1 H 2.14678 15.9676 13.1935
42 1 H 1.29519 15.9648 14.707
43 1 H 3.76844 16.087 14.6908
44 1 H 15.9976 17.1141 1.73579
45 1 H 3.75428 3.22746 9.66986
46 2 C 7.37096 14.6031 6.08191
47 2 C 6.82708 13.2006 5.78858
48 4 O 5.72456 12.6418 6.54078
49 1 H 8.09393 14.8905 5.32283
50 1 H 6.58458 15.3427 6.02646
51 1 H 7.84657 14.6499 7.06122
52 1 H 7.69178 12.5203 5.92082
53 1 H 6.50984 13.1786 4.74283
54 1 H 5.1061 13.3475 6.79146
55 2 C 16.3899 3.30454 13.4914
56 2 C 14.9549 3.93184 13.3173
57 4 O 14.8513 5.09001 14.1901
58 1 H 16.5558 2.84567 14.449
59 1 H 16.3215 2.55132 12.7192
60 1 H 17.2669 3.94785 13.2407
61 1 H 14.2393 3.19991 13.619
62 1 H 14.5989 4.1531 12.3245
63 1 H 13.9858 5.48517 14.0343
64 2 C 8.75763 11.127 11.7123
65 2 C 9.49777 9.93905 11.2044
66 4 O 8.99591 9.5801 9.90042
67 1 H 7.80918 10.7477 12.1369
68 1 H 9.34096 11.654 12.4606
69 1 H 8.4436 11.8532 10.9628
70 1 H 9.40149 9.08079 11.9021
71 1 H 10.5886 10.0536 11.0818
72 1 H 8.98607 8.6378 9.89229
73 2 C 5.74587 3.41625 5.47302
74 2 C 4.39898 3.62826 6.13047
75 4 O 4.32905 3.52428 7.55424
76 1 H 6.13644 2.40489 5.62402
77 1 H 5.58291 3.68089 4.43655
78 1 H 6.46863 4.0896 5.96628
79 1 H 3.64017 2.89705 5.81743
80 1 H 4.05935 4.6081 5.82032
81 1 H 4.97543 2.85159 7.86393
82 2 C 5.69946 8.37313 13.3555
83 2 C 5.55117 9.71808 14.0872
84 4 O 4.25462 10.1831 13.8512
85 1 H 5.20394 7.49307 13.8032
86 1 H 5.4358 8.5803 12.3071
87 1 H 6.81808 8.27398 13.2756
88 1 H 6.21695 10.4888 13.705
89 1 H 5.65407 9.58463 15.1596
90 1 H 4.04838 10.7583 14.5903
91 2 C 10.478 4.01853 14.0154
92 2 C 10.4134 5.11888 15.0702
93 4 O 11.7669 5.68778 15.2346
94 1 H 10.7191 3.09638 14.5605
95 1 H 9.55118 4.0223 13.5226
96 1 H 11.2289 4.32785 13.3467
97 1 H 9.94088 4.58653 15.9497
98 1 H 9.65486 5.96921 14.8622
99 1 H 11.7587 6.33667 15.9972
100 2 C 5.14403 15.5796 11.6474
101 2 C 6.45842 15.2305 12.1897
102 4 O 7.2934 16.3935 12.2401
103 1 H 5.27799 16.042 10.6694
104 1 H 4.45516 14.7374 11.5185
105 1 H 4.67576 16.2404 12.3936
106 1 H 6.99744 14.4698 11.6233
107 1 H 6.42185 14.7639 13.1771
108 1 H 6.949 17.0437 12.8573
109 2 C 3.53479 16.4259 4.92017
110 2 C 2.30499 15.6231 5.03524
111 4 O 2.6528 14.3955 5.59982
112 1 H 4.04444 16.5699 5.83923
113 1 H 4.37751 16.0757 4.36243
114 1 H 3.27106 17.457 4.64214
115 1 H 1.8358 15.3976 4.06202
116 1 H 1.60555 16.2063 5.61232
117 1 H 2.30323 13.7257 4.97197
118 2 C 3.00295 8.1634 10.464
119 2 C 2.5535 9.36224 9.62458
120 4 O 1.224 9.79749 9.87665
121 1 H 2.39374 7.31048 10.1919
122 1 H 4.03148 7.89036 10.2133
123 1 H 2.95287 8.29426 11.5482
124 1 H 2.56346 8.95427 8.60586
125 1 H 3.31722 10.2081 9.6832
126 1 H 1.24818 10.3386 10.6919
127 2 C 7.65793 -0.350164 16.525
128 2 C 7.09717 -0.576077 15.1332
129 4 O 6.27092 17.0346 15.1766
130 1 H 8.60604 0.236288 16.5952
131 1 H 6.91947 0.158772 17.13
132 1 H 7.75969 17.4465 16.9653
133 1 H 7.93053 -0.685265 14.4186
134 1 H 6.53292 0.311834 14.8673
135 1 H 5.38116 17.3666 14.9893
136 2 C 10.3578 10.8117 2.86038
137 2 C 9.84032 12.0187 3.59399
138 4 O 10.5371 13.1438 3.16933
139 1 H 11.4531 10.817 2.89313
140 1 H 10.0663 9.87855 3.33351
141 1 H 10.0934 10.8829 1.8276
142 1 H 9.92278 11.896 4.70775
143 1 H 8.73439 12.1108 3.56465
144 1 H 10.5769 13.7182 3.94498
145 2 C 5.75091 16.2254 1.3423
146 2 C 6.82754 17.0436 2.12822
147 4 O 8.09815 16.7648 1.55724
148 1 H 4.75373 16.2347 1.86294
149 1 H 5.70845 16.5251 0.272825
150 1 H 6.09325 15.1594 1.39154
151 1 H 6.87123 16.7231 3.22892
152 1 H 6.50149 -0.671405 1.97438
153 1 H 8.7835 17.3338 1.88263
154 2 C -0.406153 1.05285 16.5213
155 2 C 0.998793 1.15022 15.9365
156 4 O 0.937843 1.6134 14.5907
157 1 H 17.7624 0.502927 15.8028
158 1 H -0.408009 0.509717 17.4746
159 1 H -0.841776 2.03785 16.5728
160 1 H 1.52618 0.192946 15.9221
161 1 H 1.59897 1.86482 16.4913
162 1 H 1.23612 2.53275 14.5296
163 2 C 16.9787 10.2627 5.53462
164 2 C -0.53965 9.49082 5.84059
165 4 O -0.720617 8.14238 5.38035
166 1 H 16.1596 9.87042 6.11497
167 1 H 17.1257 11.3153 5.75958
168 1 H 16.8002 10.215 4.44479
169 1 H -0.122456 9.52392 6.88004
170 1 H 0.296895 9.94117 5.24606
171 1 H 0.153894 7.80763 5.16535
172 2 C 13.5378 7.89658 1.97046
173 2 C 12.4658 7.16883 2.76234
174 4 O 11.1755 7.71127 2.68946
175 1 H 13.1319 8.16095 0.999778
176 1 H 13.8073 8.80206 2.50881
177 1 H 14.4435 7.27756 1.82187
178 1 H 12.8583 7.15861 3.77832
179 1 H 12.4477 6.13262 2.39141
180 1 H 10.9232 7.86441 1.78723
181 2 C 16.5814 2.98558 3.42891
182 2 C 17.8298 3.7941 3.07136
183 4 O -0.372431 4.46001 4.23082
184 1 H 15.8543 3.70382 3.76703
185 1 H 16.0957 2.52543 2.57737
186 1 H 16.8924 2.39004 4.24155
187 1 H 17.8811 4.53434 2.27935
188 1 H -0.193425 3.05536 2.74924
189 1 H 17.6946 5.09282 4.47839
190 2 C 7.64642 0.0704007 8.22284
191 2 C 6.23393 0.467142 8.09978
192 4 O 6.17083 1.86219 8.20784
193 1 H 7.81707 17.8007 8.0036
194 1 H 8.28466 0.71378 7.59237
195 1 H 7.85409 0.282943 9.27805
196 1 H 5.55078 -0.00273861 8.83773
197 1 H 5.80796 0.171664 7.15469
198 1 H 6.59367 2.05541 9.0692
199 2 C 11.1061 16.6842 15.0269
200 2 C 10.1125 15.9735 14.0004
201 4 O 10.6602 14.73 13.5322
202 1 H 10.7464 17.6124 15.4513
203 1 H 11.3595 16.0041 15.8318
204 1 H 12.0623 16.9192 14.581
205 1 H 9.85149 16.6024 13.1705
206 1 H 9.22389 15.7831 14.597
207 1 H 10.986 14.2557 14.294
208 2 C 6.62068 8.19657 3.87596
209 2 C 6.41218 9.436 3.05499
210 4 O 5.06857 9.5647 2.63362
211 1 H 6.28322 7.27565 3.33872
212 1 H 7.67921 8.05588 4.09936
213 1 H 6.11783 8.29538 4.82972
214 1 H 7.01851 9.46407 2.16968
215 1 H 6.63566 10.2816 3.71136
216 1 H 4.46064 9.24625 3.31133
217 2 C -0.782015 7.36218 15.0414
218 2 C 17.0498 8.39535 14.5634
219 4 O 17.4052 8.87822 13.2687
220 1 H -0.849601 6.52005 14.2833
221 1 H 0.284171 7.71079 15.159
222 1 H 17.6577 7.01538 16.0154
223 1 H 17.103 9.31278 15.1529
224 1 H 15.9782 8.03558 14.5956
225 1 H 16.8557 9.6588 13.176
226 2 C 16.0772 6.40745 7.58728
227 2 C 16.0657 5.50585 6.34855
228 4 O 16.3121 6.1724 5.07398
229 1 H 17.0673 6.28666 8.05217
230 1 H 15.9404 7.47462 7.46426
231 1 H 15.3454 5.98366 8.24202
232 1 H 15.1647 4.92607 6.27149
233 1 H 16.8933 4.8109 6.49694
234 1 H 16.8276 6.97643 5.26263
235 2 C -0.193386 17.296 0.51894
236 2 C 17.4204 16.2665 0.600185
237 4 O 16.5262 16.3218 1.73156
238 1 H -0.712075 -0.554354 0.641275
239 1 H 0.370567 17.2294 1.3996
240 1 H 0.347708 17.3137 -0.38354
241 1 H -0.770317 15.3571 0.79815
242 1 H 16.8579 16.2789 -0.301993
243 1 H 0.852004 4.60061 5.28394
244 2 C 13.3101 15.3105 6.28207
245 2 C 11.868 15.8598 5.7928
246 4 O 11.0306 14.7195 5.77676
247 1 H 14.0524 16.0818 6.51906
248 1 H 13.1115 14.6097 6.97678
249 1 H 13.5605 14.8097 5.45289
250 1 H 11.8537 16.2298 4.66884
251 1 H 11.3253 16.6632 6.39724
252 1 H 10.7489 14.3598 6.62486
253 2 C 2.3891 4.64078 17.7634
254 2 C 0.990762 5.35889 17.6075
255 4 O 0.155221 4.59824 16.8388
256 1 H 2.24696 3.60146 17.5257
257 1 H 3.2534 5.12575 17.2475
258 1 H 2.58896 4.66594 0.0575998
259 1 H 1.10199 6.35593 17.2202
260 1 H 0.654505 5.57673 -0.179641
261 1 H -0.74595 4.7925 17.0628
262 2 C -0.764237 13.4867 3.45156
263 2 C 0.41647 12.5617 3.17375
264 4 O 1.63321 13.2193 3.42298
265 1 H -0.631029 14.141 4.36945
266 1 H -0.926621 14.1137 2.5992
267 1 H 17.0776 12.989 3.72845
268 1 H 0.37475 12.1421 2.12271
269 1 H 0.312634 11.6923 3.86595
270 1 H 2.3142 12.7542 2.87738
271 2 C 14.6918 0.110655 16.4002
272 2 C 14.6016 1.59893 16.2629
273 4 O 15.1044 2.03856 17.4638
274 1 H 14.1151 -0.167326 17.2907
275 1 H 14.1275 -0.275133 15.523
276 1 H 15.7024 -0.191849 16.4746
277 1 H 13.6104 2.04114 16.1446
278 1 H 15.2003 2.00391 15.4821
279 1 H 15.5137 2.90925 17.3872
280 2 C 11.6181 1.1674 12.1251
281 2 C 11.1393 1.68694 10.8012
282 4 O 11.0015 3.10758 10.8447
283 1 H 10.9056 1.5284 12.8776
284 1 H 11.6455 0.0790779 12.1447
285 1 H 12.565 1.65374 12.3595
286 1 H 10.194 1.32372 10.3821
287 1 H 11.916 1.41918 10.1117
288 1 H 10.1642 3.46087 10.4907
289 2 C 6.34295 5.08079 9.99648
290 2 C 7.67883 4.37801 9.87788
291 4 O 7.70091 3.06686 10.411
292 1 H 6.16395 5.45665 10.9815
293 1 H 6.31423 5.91473 9.26988
294 1 H 5.52741 4.39895 9.69229
295 1 H 8.38487 5.03948 10.4103
296 1 H 7.89349 4.25605 8.80706
297 1 H 7.03887 3.04965 11.1229
298 2 C 13.1968 9.78178 5.50214
299 2 C 12.8995 10.8106 6.55697
300 4 O 11.9663 10.3765 7.55173
301 1 H 13.7566 10.2023 4.65554
302 1 H 13.8515 9.02936 5.981
303 1 H 12.3412 9.2675 5.09983
304 1 H 12.5719 11.8023 6.18571
305 1 H 13.8615 10.9833 7.05022
306 1 H 11.7864 9.45036 7.46148
307 2 C 11.8328 9.4807 14.4092
308 2 C 13.1496 10.1316 14.0052
309 4 O 14.2495 9.24728 14.3973
310 1 H 11.8731 9.0956 15.4401
311 1 H 10.9687 10.1807 14.3209
312 1 H 11.6943 8.5364 13.8551
313 1 H 13.2423 11.1049 14.4546
314 1 H 13.1545 10.264 12.8978
315 1 H 14.1912 8.47194 13.8419
316 2 C 4.74436 12.6931 9.80788
317 2 C 3.47616 13.0101 8.9876
318 4 O 3.68382 13.9875 8.03844
319 1 H 5.05333 13.5623 10.3686
320 1 H 4.48744 11.8713 10.4739
321 1 H 5.54991 12.3929 9.15709
322 1 H 2.67646 13.3128 9.69722
323 1 H 3.04512 12.1272 8.50003
324 1 H 2.9895 13.9546 7.33424
325 2 C 0.10263 1.45004 10.0226
326 2 C -0.358203 1.47139 11.4798
327 4 O 0.320985 0.539424 12.2296
328 1 H -0.194231 0.422011 9.69843
329 1 H -0.369872 2.26893 9.43074
330 1 H 1.15884 1.56274 9.99235
331 1 H 17.3576 1.21539 11.5544
332 1 H -0.207141 2.4281 11.9994
333 1 H 0.485566 0.929796 13.103
334 2 C 3.61857 4.68921 12.3675
335 2 C 2.15271 4.59587 12.7183
336 4 O 2.06238 4.29869 14.1395
337 1 H 3.81333 4.25567 11.3738
338 1 H 4.11331 5.63722 12.378
339 1 H 4.20055 3.99107 13.0313
340 1 H 1.69293 3.79891 12.1565
341 1 H 1.61836 5.51633 12.5013
342 1 H 1.26802 4.72665 14.4887
343 2 C 8.04373 13.9619 16.4288
344 2 C 7.24712 13.6147 17.6373
345 4 O 5.84973 13.6348 17.3017
346 1 H 9.06495 13.9131 16.6338
347 1 H 7.79207 13.2848 15.6316
348 1 H 7.61516 14.869 15.9292
349 1 H 7.51604 14.2491 -0.330359
350 1 H 7.58196 12.7022 18.0746
351 1 H 5.89356 13.2787 16.4121
352 2 C 3.28782 0.286096 10.723
353 2 C 4.66458 0.372323 11.3817
354 4 O 5.36863 1.5984 11.2766
355 1 H 3.30901 0.489629 9.64527
356 1 H 2.94306 -0.731302 10.9115
357 1 H 2.59805 0.976831 11.1424
358 1 H 5.33751 -0.389707 10.9548
359 1 H 4.64674 0.0699346 12.4151
360 1 H 4.84417 2.20823 11.783
361 2 C 9.99841 14.9273 10.1315
362 2 C 11.0284 16.0752 9.98621
363 4 O 12.0903 15.7539 10.8363
364 1 H 9.52402 14.9811 11.0933
365 1 H 9.13198 15.0119 9.49272
366 1 H 10.5626 14.0085 10.0565
367 1 H 10.5628 17.0503 10.246
368 1 H 11.4643 16.1935 8.98948
369 1 H 11.811 15.2652 11.5963
370 2 C 12.5979 7.41582 9.5999
371 2 C 11.7247 6.51999 10.4781
372 4 O 10.3958 6.36997 9.96545
373 1 H 12.2511 8.45582 9.65447
374 1 H 13.6089 7.31211 9.9351
375 1 H 12.5256 7.17069 8.53775
376 1 H 11.656 6.8706 11.4986
377 1 H 12.1781 5.49249 10.5675
378 1 H 10.4844 6.8436 9.11898
379 2 C 1.4247 8.4574 2.3368
380 2 C 1.75293 7.09292 2.84725
381 4 O 3.11426 6.9911 3.33266
382 1 H 2.22756 8.82549 1.71065
383 1 H 0.50371 8.45409 1.74464
384 1 H 1.32118 9.22262 3.13464
385 1 H 1.51297 6.30771 2.07088
386 1 H 1.14689 6.79181 3.69178
387 1 H 3.63153 7.48364 2.67851
388 2 C 13.3548 11.6534 10.2599
389 2 C 14.3422 12.87 10.2954
390 4 O 13.956 13.9413 9.53098
391 1 H 13.1199 11.4029 9.22054
392 1 H 13.9414 10.8139 10.7062
393 1 H 12.4244 11.7791 10.803
394 1 H 15.2742 12.5216 9.83483
395 1 H 14.5571 13.145 11.3636
396 1 H 13.185 14.3913 9.82987
397 2 C 0.54914 13.1562 11.5885
398 2 C 1.79365 12.8143 12.3693
399 4 O 2.15689 11.4616 12.0684
400 1 H -0.322695 12.5744 11.8475
401 1 H 0.318982 14.2552 11.6435
402 1 H 0.80459 12.8889 10.5562
403 1 H 1.71347 12.911 13.4377
404 1 H 2.51483 13.5083 12.0123
405 1 H 3.0792 11.3542 12.2585
406 2 C 3.26099 10.4045 17.3319
407 2 C 2.70296 11.7113 16.7818
408 4 O 3.50964 12.2042 15.7237
409 1 H 3.45535 9.72398 16.4935
410 1 H 4.24394 10.5123 17.7534
411 1 H 2.52548 9.86766 -0.781731
412 1 H 2.7511 12.4394 17.5975
413 1 H 1.66181 11.7014 16.3861
414 1 H 3.37423 13.1355 15.6375
415 2 C 10.5004 6.66045 5.5455
416 2 C 9.67593 7.67727 6.24039
417 4 O 10.2432 8.01652 7.58312
418 1 H 10.8806 5.95331 6.27234
419 1 H 10.0347 6.14225 4.73503
420 1 H 11.4387 7.10848 5.22223
421 1 H 8.65199 7.48154 6.50556
422 1 H 9.71711 8.62248 5.65354
423 1 H 9.771 8.79248 7.89499
424 2 C 3.1225 14.2645 0.789407
425 2 C 4.09863 13.2665 1.2314
426 4 O 3.43792 12.1194 1.76981
427 1 H 2.70482 14.0742 -0.148694
428 1 H 2.37969 14.4744 1.54052
429 1 H 3.52875 15.2732 0.736497
430 1 H 4.77809 13.6648 1.98055
431 1 H 4.73738 13.0655 0.364844
432 1 H 4.03693 11.3745 1.89606
433 2 C 1.66248 5.01236 8.54324
434 2 C 0.846145 5.37663 7.2507
435 4 O 1.42075 4.75195 6.07103
436 1 H 2.61706 5.54318 8.55375
437 1 H 1.1172 5.37065 9.44327
438 1 H 1.7684 3.92231 8.58112
439 1 H 0.869778 6.49633 7.08446
440 1 H -0.235519 5.30162 7.24815
441 1 H 2.3227 4.62276 5.96433
442 2 C 14.0639 5.83233 17.7638
443 2 C 15.6746 6.00252 17.6944
444 4 O 16.2814 5.01099 16.9464
445 1 H 13.6806 5.76642 -0.0111751
446 1 H 13.6763 6.64123 17.1972
447 1 H 13.8476 4.89404 17.2513
448 1 H 16.0338 5.88264 -0.0873333
449 1 H 15.8759 7.00835 17.3128
450 1 H 16.0696 5.14305 15.9892
ITEM: TIMESTEP
6700
ITEM: NUMBER OF ATOMS
450
ITEM: BOX BOUNDS pp pp pp
-9.2242481803140208e-01 1.7847424818031232e+01
-9.2242481803140208e-01 1.7847424818031232e+01
-9.2242481803140208e-01 1.7847424818031232e+01
ITEM: ATOMS id type element x y z
1 2 C 7.12863 3.66057 0.122993
2 2 C 7.57811 2.28428 0.552198
3 4 O 8.70164 1.9352 -0.32486
4 1 H 7.92604 4.36387 0.404397
5 1 H 6.91253 3.74731 -0.935091
6 1 H 6.24783 3.91045 0.678735
7 1 H 6.79133 1.50886 0.543196
8 1 H 7.89665 2.2759 1.5947
9 1 H 9.16092 1.12137 -0.0522549
10 2 C 11.5037 10.9705 -0.721209
11 2 C 12.0341 12.3823 17.8205
12 4 O 11.0982 13.4039 17.4719
13 1 H 10.6026 10.8324 17.441
14 1 H 12.25 10.2297 17.8269
15 1 H 11.2535 10.8008 0.310276
16 1 H 12.7305 12.3269 17.0261
17 1 H 12.6045 12.5752 -0.0360413
18 1 H 10.2629 13.3157 -0.822842
19 2 C 10.6084 5.28348 -0.463928
20 2 C 9.88526 6.63664 -0.554001
21 4 O 10.8073 7.71632 -0.692205
22 1 H 11.2806 5.17105 0.376116
23 1 H 9.84374 4.47291 -0.565757
24 1 H 11.3259 5.19773 17.4652
25 1 H 9.19791 6.77622 0.313802
26 1 H 9.20589 6.61157 17.358
27 1 H 10.1915 8.45986 -0.865524
28 2 C 16.8523 6.48073 10.8743
29 2 C 17.2931 7.77119 10.3059
30 4 O -0.45698 7.63489 9.31759
31 1 H 17.7256 5.96976 11.3021
32 1 H 16.0582 6.74007 11.579
33 1 H 16.4364 5.7539 10.1828
34 1 H 17.568 8.37375 11.1396
35 1 H 16.5017 8.30102 9.79862
36 1 H 0.19225 8.34036 9.45137
37 2 C 1.70329 16.5666 14.154
38 2 C 3.03317 16.9407 14.828
39 4 O 3.65616 -0.829136 14.6022
40 1 H 1.36323 17.4794 13.7114
41 1 H 2.10682 15.95 13.3562
42 1 H 0.914501 16.0524 14.6763
43 1 H 3.68966 16.0981 15.3228
44 1 H 16.9006 17.0439 2.29358
45 1 H 3.60637 2.59552 9.69682
46 2 C 7.06196 14.4306 6.3123
47 2 C 6.76988 13.1041 5.65793
48 4 O 6.0343 12.3488 6.54972
49 1 H 7.71065 15.0558 5.68975
50 1 H 6.09849 14.9175 6.48731
51 1 H 7.56235 14.2946 7.27128
52 1 H 7.69769 12.5866 5.43856
53 1 H 6.25262 13.1853 4.69358
54 1 H 5.5504 12.9812 7.08442
55 2 C 16.3148 3.66466 13.3858
56 2 C 14.9238 4.03305 13.4676
57 4 O 14.8491 5.38277 14.1396
58 1 H 16.8934 3.95844 14.3121
59 1 H 16.4302 2.63329 13.1526
60 1 H 16.7686 4.2497 12.5372
61 1 H 14.2667 3.3516 14.1211
62 1 H 14.3699 4.01721 12.5149
63 1 H 13.893 5.45892 14.1556
64 2 C 8.82202 11.0869 11.2455
65 2 C 9.47662 9.74981 10.9775
66 4 O 8.87877 9.06063 9.90562
67 1 H 7.78465 11.0057 11.0791
68 1 H 8.99951 11.3512 12.3069
69 1 H 9.18438 11.9064 10.6195
70 1 H 9.45898 9.1701 11.8833
71 1 H 10.5415 9.85988 10.754
72 1 H 9.33649 8.19998 9.91344
73 2 C 5.74168 3.23791 5.70206
74 2 C 4.38644 3.72635 6.11455
75 4 O 4.46491 4.03602 7.51348
76 1 H 6.01608 2.4893 6.44764
77 1 H 5.65786 2.83101 4.68844
78 1 H 6.50225 4.01303 5.64784
79 1 H 3.55927 3.04763 5.9567
80 1 H 4.18458 4.6893 5.59828
81 1 H 4.98742 3.34961 7.9487
82 2 C 5.57381 8.37347 13.3182
83 2 C 5.46208 9.62305 14.0882
84 4 O 4.21569 10.2468 13.7054
85 1 H 4.65273 7.76495 13.5056
86 1 H 5.7728 8.53196 12.2512
87 1 H 6.4004 7.89368 13.7436
88 1 H 6.15249 10.4207 13.8524
89 1 H 5.45627 9.44464 15.1799
90 1 H 4.14024 10.995 14.3366
91 2 C 10.6496 4.23456 13.6993
92 2 C 10.6526 5.32505 14.8207
93 4 O 11.9378 5.49785 15.2843
94 1 H 11.4621 3.63548 14.0484
95 1 H 9.67667 3.72497 13.8734
96 1 H 10.7883 4.66379 12.7202
97 1 H 10.0345 4.73915 15.4287
98 1 H 10.1179 6.21374 14.7489
99 1 H 12.0134 6.27952 15.8857
100 2 C 5.16921 15.7988 11.6657
101 2 C 6.62682 15.4058 11.9641
102 4 O 7.48935 16.547 12.0939
103 1 H 4.94727 16.1034 10.6085
104 1 H 4.62174 14.8867 11.7954
105 1 H 4.79237 16.5777 12.3346
106 1 H 7.05239 14.7098 11.2521
107 1 H 6.69224 14.8589 12.9393
108 1 H 7.22186 17.0467 12.8694
109 2 C 3.54419 16.5202 4.83598
110 2 C 2.44272 15.4918 4.80753
111 4 O 2.60723 14.327 5.64379
112 1 H 3.77055 17.0082 5.80164
113 1 H 4.56777 16.0904 4.6903
114 1 H 3.43055 17.3248 4.15565
115 1 H 2.29676 15.1327 3.82535
116 1 H 1.51194 16.0245 5.08987
117 1 H 2.37425 13.5637 5.09341
118 2 C 3.04654 7.87735 10.4753
119 2 C 2.86128 8.93578 9.39953
120 4 O 1.67948 9.71313 9.63162
121 1 H 2.09443 7.31918 10.569
122 1 H 3.79525 7.14821 10.1818
123 1 H 3.20045 8.34852 11.4455
124 1 H 2.70091 8.38881 8.5008
125 1 H 3.75732 9.4936 9.3256
126 1 H 1.90188 10.3704 10.2912
127 2 C 7.63235 -0.376078 16.4393
128 2 C 7.16172 -0.612661 14.9948
129 4 O 6.2354 17.1186 15.0282
130 1 H 8.20968 0.54616 16.5061
131 1 H 6.79192 -0.335572 17.1052
132 1 H 8.30551 17.6142 16.7578
133 1 H 8.04336 -0.81266 14.4324
134 1 H 6.7569 0.336967 14.6334
135 1 H 5.35459 17.507 14.9217
136 2 C 10.2269 10.7696 2.63656
137 2 C 10.0539 11.8752 3.65249
138 4 O 10.9142 13.0353 3.33625
139 1 H 11.2264 10.3438 2.57434
140 1 H 9.65422 9.86568 2.98524
141 1 H 9.91778 11.0798 1.65839
142 1 H 10.457 11.552 4.59661
143 1 H 9.00035 12.1923 3.7443
144 1 H 10.9186 13.58 4.13963
145 2 C 5.55823 16.4123 1.26388
146 2 C 6.73043 16.9406 2.01943
147 4 O 7.94831 16.8089 1.33386
148 1 H 4.70013 16.6314 1.84517
149 1 H 5.5927 16.6619 0.230303
150 1 H 5.5867 15.3196 1.11752
151 1 H 6.83058 16.4948 2.96378
152 1 H 6.53815 -0.772922 2.12664
153 1 H 8.69476 16.5872 1.91015
154 2 C -0.502781 1.18229 16.7696
155 2 C 0.792309 1.05232 15.9457
156 4 O 0.653389 1.68716 14.6409
157 1 H 17.4484 0.655382 16.3206
158 1 H -0.31632 0.920318 17.822
159 1 H -0.759042 2.23374 16.7534
160 1 H 1.07454 0.0264686 15.7485
161 1 H 1.62537 1.45164 16.5006
162 1 H 1.19395 2.48334 14.5201
163 2 C 16.8373 10.1668 5.60823
164 2 C -0.417085 9.76842 5.81078
165 4 O -0.209984 8.34933 5.57541
166 1 H 16.2484 9.65617 6.37314
167 1 H 16.7554 11.2332 5.89227
168 1 H 16.408 10.0031 4.6091
169 1 H -0.129224 9.98348 6.81294
170 1 H 0.296189 10.2927 5.19331
171 1 H -0.00733574 7.97308 6.43127
172 2 C 13.3896 8.25737 1.91898
173 2 C 12.4319 7.06612 2.38281
174 4 O 11.165 7.60295 2.59818
175 1 H 13.2076 8.66395 0.913656
176 1 H 13.2132 9.01724 2.6555
177 1 H 14.4202 8.01692 2.05923
178 1 H 12.9382 6.82658 3.30201
179 1 H 12.4384 6.21802 1.6793
180 1 H 10.8347 7.90036 1.724
181 2 C 16.7175 2.75245 3.41382
182 2 C -0.814518 3.57724 3.12907
183 4 O -0.464461 4.65904 3.94022
184 1 H 15.789 3.29095 3.73349
185 1 H 16.5392 2.31904 2.42226
186 1 H 16.886 2.09969 4.30454
187 1 H -0.757362 3.96507 2.08492
188 1 H 0.0215681 2.86433 3.29465
189 1 H 17.5174 5.14724 4.27242
190 2 C 7.67649 -0.129655 8.40538
191 2 C 6.27777 0.495619 8.01757
192 4 O 6.10257 1.81258 8.49185
193 1 H 7.74658 17.6344 7.98457
194 1 H 8.46278 0.510514 8.02152
195 1 H 7.83182 -0.249143 9.47461
196 1 H 5.45212 -0.042007 8.47375
197 1 H 6.18589 0.445517 6.93568
198 1 H 6.50547 1.86456 9.36517
199 2 C 10.9525 16.4209 15.1779
200 2 C 10.1228 15.8259 14.0874
201 4 O 10.5934 14.5725 13.5752
202 1 H 10.5406 17.4069 15.407
203 1 H 10.8948 15.7908 16.0894
204 1 H 12.0579 16.4978 15.0237
205 1 H 9.99688 16.5076 13.2521
206 1 H 9.13151 15.783 14.5474
207 1 H 10.492 13.888 14.2543
208 2 C 6.93107 8.27346 4.10589
209 2 C 6.63812 9.34469 3.01283
210 4 O 5.28514 9.49336 2.67981
211 1 H 6.40377 7.32425 4.04399
212 1 H 7.99471 8.07178 3.95948
213 1 H 6.71782 8.65449 5.10815
214 1 H 7.13045 9.0653 2.07341
215 1 H 7.00663 10.3196 3.36343
216 1 H 4.6733 9.07387 3.28444
217 2 C -0.576556 7.28456 14.7897
218 2 C 17.178 8.43867 14.5711
219 4 O 17.522 9.11446 13.338
220 1 H -0.880051 6.43417 14.193
221 1 H 0.427103 7.58418 14.5234
222 1 H -0.627467 7.09558 15.8241
223 1 H 17.237 9.19483 15.3481
224 1 H 16.1695 8.0201 14.517
225 1 H 16.745 9.6427 13.1578
226 2 C 15.802 6.29955 7.60763
227 2 C 15.5149 5.50358 6.37584
228 4 O 16.3306 6.01098 5.25529
229 1 H 16.8649 6.37243 7.76837
230 1 H 15.3726 7.30428 7.53361
231 1 H 15.3728 5.76093 8.48302
232 1 H 14.4657 5.59413 6.02914
233 1 H 15.7983 4.4536 6.46722
234 1 H 17.0513 6.53703 5.62628
235 2 C -0.0753113 17.2507 0.72009
236 2 C 17.347 16.4544 0.54881
237 4 O 16.7967 16.1977 1.84446
238 1 H -0.213276 -0.476448 1.06751
239 1 H 0.692686 16.8334 1.44613
240 1 H 0.216562 17.2588 -0.370827
241 1 H 17.7036 15.5975 -0.0100265
242 1 H 16.6475 16.9993 -0.158243
243 1 H 0.676349 4.77894 5.35285
244 2 C 13.3682 15.731 6.70122
245 2 C 12.0557 16.253 6.20577
246 4 O 11.0897 15.1723 5.83708
247 1 H 13.8788 16.648 6.7761
248 1 H 13.1674 15.0651 7.65063
249 1 H 13.7591 15.0987 5.7836
250 1 H 12.1221 16.9498 5.43553
251 1 H 11.5144 16.7526 6.95857
252 1 H 10.2423 15.4784 6.13883
253 2 C 2.23058 4.76121 -0.655474
254 2 C 0.882608 5.40671 17.8375
255 4 O 0.345646 4.67246 16.6849
256 1 H 2.09159 3.83448 -0.107725
257 1 H 2.64299 4.52947 17.1411
258 1 H 2.89774 5.50199 -0.237647
259 1 H 1.02139 6.50212 17.5524
260 1 H 0.181699 5.29057 -0.0626155
261 1 H -0.633095 4.74843 16.7476
262 2 C -0.912128 13.1604 3.52592
263 2 C 0.279751 12.2601 3.19278
264 4 O 1.50335 12.8626 3.556
265 1 H -0.891939 13.4908 4.56643
266 1 H 17.9448 14.0027 2.88503
267 1 H 16.8668 12.7538 3.34635
268 1 H 0.281788 12.0502 2.1477
269 1 H 0.101555 11.3712 3.77831
270 1 H 2.1062 12.4835 2.91668
271 2 C 14.5489 -0.0909175 16.5306
272 2 C 14.7039 1.40078 16.3445
273 4 O 15.2857 2.12568 17.5205
274 1 H 13.9421 -0.186099 17.4356
275 1 H 14.0241 -0.546033 15.6676
276 1 H 15.5224 -0.565242 16.6575
277 1 H 13.7665 1.92196 16.237
278 1 H 15.307 1.70388 15.4679
279 1 H 15.4104 3.03257 17.25
280 2 C 11.832 0.987265 11.7999
281 2 C 10.9766 1.61142 10.735
282 4 O 10.8581 2.98818 11.0148
283 1 H 11.3075 0.983617 12.7631
284 1 H 12.0003 -0.0501045 11.5228
285 1 H 12.7626 1.511 11.9093
286 1 H 9.96366 1.20556 10.6999
287 1 H 11.4533 1.31635 9.77043
288 1 H 10.0515 3.37846 10.6249
289 2 C 6.29887 4.87751 10.2757
290 2 C 7.50859 4.0675 9.85919
291 4 O 7.62175 2.82716 10.5262
292 1 H 6.33734 5.08781 11.3417
293 1 H 6.14896 5.76781 9.6791
294 1 H 5.41818 4.25366 10.1196
295 1 H 8.34223 4.73266 10.0498
296 1 H 7.48671 3.93383 8.78363
297 1 H 6.86542 2.71303 11.1074
298 2 C 12.9412 9.51846 5.69147
299 2 C 12.8433 10.6527 6.66682
300 4 O 11.9843 10.2024 7.72432
301 1 H 13.807 9.53958 4.99077
302 1 H 13.0895 8.58119 6.21412
303 1 H 12.0285 9.34035 5.1178
304 1 H 12.4696 11.6083 6.29426
305 1 H 13.8383 10.9274 7.03778
306 1 H 12.2381 9.32812 7.97601
307 2 C 11.7149 9.82684 14.5168
308 2 C 13.1068 10.3371 14.3024
309 4 O 14.0957 9.3228 14.246
310 1 H 11.5586 9.56262 15.5524
311 1 H 10.9499 10.5562 14.325
312 1 H 11.5106 8.95548 13.8718
313 1 H 13.3857 11.0588 15.0563
314 1 H 13.1106 10.9045 13.3729
315 1 H 13.7586 8.57274 13.7729
316 2 C 4.73686 12.3628 9.50812
317 2 C 3.53431 13.0244 8.83217
318 4 O 3.91357 14.3027 8.21911
319 1 H 5.60695 12.9975 9.3864
320 1 H 4.53034 12.1994 10.5553
321 1 H 4.89294 11.398 9.01374
322 1 H 2.71442 13.159 9.52915
323 1 H 3.17499 12.3688 8.05262
324 1 H 3.31625 14.3944 7.46442
325 2 C 0.270286 1.55869 10.0996
326 2 C -0.212798 1.31242 11.5426
327 4 O 0.537154 0.173283 12.134
328 1 H -0.174232 0.808121 9.45139
329 1 H -0.235787 2.45323 9.76328
330 1 H 1.36644 1.70193 10.0803
331 1 H 17.5106 0.99213 11.5007
332 1 H -0.0883796 2.14791 12.2178
333 1 H 0.677351 0.484309 13.0455
334 2 C 3.46659 4.58951 12.3518
335 2 C 2.04957 4.82897 12.7799
336 4 O 1.72718 4.35213 14.0802
337 1 H 3.56877 4.89785 11.3083
338 1 H 4.14148 5.09306 12.9983
339 1 H 3.86735 3.57119 12.3258
340 1 H 1.39845 4.21321 12.1172
341 1 H 1.87682 5.89711 12.7156
342 1 H 0.970415 4.77159 14.5238
343 2 C 8.23603 13.9171 16.2722
344 2 C 7.29855 13.7236 17.4741
345 4 O 5.90701 13.6232 17.3295
346 1 H 9.14012 14.3538 16.6065
347 1 H 8.4165 12.9676 15.6628
348 1 H 7.74603 14.5182 15.532
349 1 H 7.43135 14.7191 -0.809775
350 1 H 7.71205 12.9521 -0.548329
351 1 H 5.67789 12.7488 16.9893
352 2 C 3.38497 0.142613 10.7449
353 2 C 4.79842 0.180533 11.3221
354 4 O 5.41563 1.51278 11.2964
355 1 H 3.47287 0.365878 9.6946
356 1 H 2.92893 -0.868055 10.8334
357 1 H 2.76596 0.877944 11.2519
358 1 H 5.41158 -0.458873 10.6806
359 1 H 4.8756 -0.136472 12.3603
360 1 H 4.68609 2.1149 11.096
361 2 C 9.77696 15.0911 10.1213
362 2 C 10.9468 16.0486 10.1311
363 4 O 11.9966 15.8832 11.134
364 1 H 9.30559 14.7972 11.0634
365 1 H 8.98036 15.5759 9.52778
366 1 H 10.1078 14.2158 9.51696
367 1 H 10.5638 17.0461 10.2812
368 1 H 11.4429 16.0431 9.13447
369 1 H 11.6773 15.28 11.8103
370 2 C 12.6753 7.34667 9.86088
371 2 C 11.6773 6.39247 10.4245
372 4 O 10.4275 6.33148 9.72171
373 1 H 12.1459 8.29148 9.69222
374 1 H 13.5218 7.49075 10.5517
375 1 H 12.9532 6.92036 8.86307
376 1 H 11.4016 6.74403 11.4339
377 1 H 12.1152 5.4332 10.5402
378 1 H 10.615 6.38823 8.76956
379 2 C 1.52056 8.62792 2.31331
380 2 C 1.75234 7.23364 2.98574
381 4 O 3.1349 6.95503 3.09496
382 1 H 1.76044 8.5604 1.23807
383 1 H 0.487826 8.95655 2.43287
384 1 H 2.06313 9.42397 2.81488
385 1 H 1.17711 6.44901 2.54519
386 1 H 1.4287 7.31612 4.01168
387 1 H 3.45843 6.84739 2.19327
388 2 C 13.1079 11.818 10.4589
389 2 C 14.2792 12.686 10.0961
390 4 O 13.7253 13.9168 9.53393
391 1 H 12.6737 11.4581 9.52566
392 1 H 13.4246 10.928 10.9832
393 1 H 12.3774 12.376 11.0564
394 1 H 14.8917 12.237 9.32414
395 1 H 14.8627 12.8801 10.9656
396 1 H 13.3873 14.515 10.266
397 2 C 0.462859 13.1769 11.6427
398 2 C 1.61892 12.6652 12.5355
399 4 O 2.34917 11.6539 11.9266
400 1 H -0.214693 12.3813 11.3326
401 1 H -0.105873 13.8615 12.2392
402 1 H 0.809852 13.7575 10.7815
403 1 H 1.23946 12.3471 13.5205
404 1 H 2.25133 13.6018 12.6775
405 1 H 2.90852 11.1337 12.554
406 2 C 3.19101 10.2996 17.0187
407 2 C 2.69678 11.6699 16.7515
408 4 O 3.74681 12.3274 16.0026
409 1 H 3.1779 9.6717 16.0975
410 1 H 4.18559 10.3362 17.4343
411 1 H 2.43301 9.82857 -1.13682
412 1 H 2.48952 12.1923 17.6765
413 1 H 1.86031 11.6121 16.0826
414 1 H 3.56703 13.2612 15.8348
415 2 C 10.5846 6.78271 5.74286
416 2 C 9.58746 7.70533 6.37234
417 4 O 10.1564 7.9853 7.62406
418 1 H 10.7479 5.85038 6.33298
419 1 H 10.0609 6.48517 4.83063
420 1 H 11.5212 7.17617 5.35368
421 1 H 8.61832 7.24994 6.56126
422 1 H 9.41425 8.58 5.74497
423 1 H 9.66584 8.65978 8.09273
424 2 C 2.84047 14.2799 0.781775
425 2 C 3.92406 13.3913 1.50032
426 4 O 3.44438 12.0586 1.60386
427 1 H 2.2195 13.5993 0.13851
428 1 H 2.25503 14.8685 1.4631
429 1 H 3.16474 15.1711 0.222215
430 1 H 4.15306 13.7406 2.51562
431 1 H 4.8458 13.4586 0.846835
432 1 H 4.17477 11.4856 1.84457
433 2 C 1.81784 4.94788 8.46498
434 2 C 0.791221 5.25606 7.33028
435 4 O 1.32424 4.61223 6.06436
436 1 H 2.79935 5.32255 8.0788
437 1 H 1.44465 5.39542 9.37941
438 1 H 1.97866 3.89366 8.53501
439 1 H 0.939338 6.31141 7.13692
440 1 H -0.242717 4.93711 7.43429
441 1 H 2.23637 4.945 5.76541
442 2 C 14.0595 6.12606 17.8864
443 2 C 15.5232 6.30967 17.64
444 4 O 16.2093 5.33632 16.804
445 1 H 13.8563 6.44977 0.136776
446 1 H 13.5763 6.56456 17.0223
447 1 H 13.8291 5.05292 17.9243
448 1 H 16.0222 6.31562 -0.123113
449 1 H 15.6919 7.29955 17.2029
450 1 H 16.0075 5.60597 15.8988
ITEM: TIMESTEP
6800
ITEM: NUMBER OF ATOMS
450
ITEM: BOX BOUNDS pp pp pp
-9.0965792774966303e-01 1.7834657927749497e+01
-9.0965792774966303e-01 1.7834657927749497e+01
-9.0965792774966303e-01 1.7834657927749497e+01
ITEM: ATOMS id type element x y z
1 2 C 6.94118 3.73296 -0.372311
2 2 C 7.5037 2.36673 -0.0677875
3 4 O 8.77966 2.31433 -0.585186
4 1 H 7.63579 4.47659 0.0114719
5 1 H 6.96814 3.87902 17.282
6 1 H 5.89403 3.81921 -0.0615324
7 1 H 6.84207 1.60448 -0.473206
8 1 H 7.56169 2.23225 1.02178
9 1 H 9.14122 1.41947 -0.502001
10 2 C 11.3545 11.0838 -0.707662
11 2 C 12.1471 12.3753 -0.876757
12 4 O 11.2596 13.4427 17.4751
13 1 H 10.9522 10.836 17.0499
14 1 H 12.0069 10.2904 -0.359214
15 1 H 10.5251 11.0796 0.0173503
16 1 H 12.8934 12.1465 17.111
17 1 H 12.5895 12.5698 0.0930708
18 1 H 11.0862 13.9817 -0.502643
19 2 C 10.5978 5.53493 -0.292595
20 2 C 9.85885 6.82402 -0.573758
21 4 O 10.8323 7.87891 -0.56492
22 1 H 11.2487 5.49773 0.566355
23 1 H 9.86928 4.72005 -0.267476
24 1 H 11.133 5.32497 17.5331
25 1 H 9.07161 7.08367 0.130506
26 1 H 9.43166 6.75993 17.1484
27 1 H 10.3866 8.69624 -0.774753
28 2 C 17.3264 6.5444 11.0388
29 2 C 17.4705 7.91243 10.3652
30 4 O -0.396143 7.7144 9.24864
31 1 H -0.456998 6.23314 11.465
32 1 H 16.5928 6.47438 11.8399
33 1 H 17.0738 5.8237 10.2345
34 1 H -0.856401 8.58364 11.1137
35 1 H 16.5251 8.31099 9.92904
36 1 H 0.289604 8.39782 9.28845
37 2 C 1.69394 16.3792 14.3064
38 2 C 2.88923 16.8145 14.9878
39 4 O 3.4469 -0.901187 14.8251
40 1 H 1.45893 17.0713 13.503
41 1 H 1.81649 15.285 14.0299
42 1 H 0.898385 16.2841 15.0887
43 1 H 3.39329 16.0158 15.5869
44 1 H 16.9531 16.5324 2.69545
45 1 H 3.76314 2.79951 9.18913
46 2 C 6.91686 14.3746 6.47056
47 2 C 6.55893 13.1145 5.68023
48 4 O 6.269 11.978 6.52398
49 1 H 7.30709 15.1257 5.7829
50 1 H 6.02882 14.724 7.00925
51 1 H 7.66962 14.1593 7.22935
52 1 H 7.40396 12.8191 5.08435
53 1 H 5.72058 13.2558 4.9928
54 1 H 5.42659 12.2082 6.91793
55 2 C 16.3314 4.04329 13.3709
56 2 C 14.7758 4.2953 13.8328
57 4 O 14.6689 5.59802 14.1597
58 1 H 17.0283 4.27361 14.157
59 1 H 16.5004 2.98681 13.1748
60 1 H 16.5873 4.57733 12.5233
61 1 H 14.3634 3.70455 14.6379
62 1 H 14.2362 4.18119 12.8977
63 1 H 13.6963 5.7229 14.1809
64 2 C 8.88374 10.8855 10.5943
65 2 C 9.50579 9.49134 10.9253
66 4 O 8.8139 8.56975 10.0423
67 1 H 7.77597 10.8856 10.6425
68 1 H 9.2367 11.6923 11.235
69 1 H 9.22542 11.0547 9.56796
70 1 H 9.35199 9.22205 11.9907
71 1 H 10.5819 9.50298 10.666
72 1 H 9.30307 7.72737 10.1955
73 2 C 5.82692 3.20001 5.52446
74 2 C 4.57291 3.78619 6.21608
75 4 O 4.88437 4.47544 7.43307
76 1 H 6.13087 2.38517 6.15606
77 1 H 5.61085 2.7695 4.53623
78 1 H 6.59579 3.93755 5.36971
79 1 H 3.75991 3.07508 6.40612
80 1 H 4.16996 4.57455 5.60156
81 1 H 5.10813 3.82605 8.12058
82 2 C 5.39903 8.34824 13.1917
83 2 C 5.3249 9.63476 14.0932
84 4 O 4.21346 10.5727 13.7335
85 1 H 4.45458 7.89714 13.3863
86 1 H 5.45948 8.52031 12.1346
87 1 H 6.19123 7.65597 13.5573
88 1 H 6.11107 10.3643 14.0879
89 1 H 5.25685 9.34514 15.1389
90 1 H 4.37884 11.371 14.2166
91 2 C 10.8107 4.44197 13.4181
92 2 C 10.8698 5.39842 14.5978
93 4 O 12.1888 5.67303 15.0932
94 1 H 11.2668 3.47545 13.7025
95 1 H 9.77721 4.37675 13.01
96 1 H 11.5333 4.88842 12.6924
97 1 H 10.1224 4.95223 15.3174
98 1 H 10.5025 6.45843 14.2903
99 1 H 12.1602 6.21134 15.8496
100 2 C 5.23399 15.5512 11.7086
101 2 C 6.76412 15.4415 11.8206
102 4 O 7.43277 16.7137 11.8319
103 1 H 5.00286 16.2516 10.9331
104 1 H 4.79702 14.5873 11.4547
105 1 H 4.81858 16.0162 12.5831
106 1 H 7.17548 14.9039 10.9666
107 1 H 7.05681 14.9779 12.7358
108 1 H 7.34611 17.0865 12.72
109 2 C 3.6452 16.4392 4.93533
110 2 C 2.52061 15.4647 4.58055
111 4 O 2.64766 14.4362 5.57589
112 1 H 3.67082 16.7923 5.98365
113 1 H 4.56859 15.928 4.70663
114 1 H 3.75876 17.3627 4.35526
115 1 H 2.64791 15.0752 3.56179
116 1 H 1.54655 15.9733 4.60602
117 1 H 2.23086 13.6361 5.26418
118 2 C 3.07177 7.66652 10.5171
119 2 C 2.94881 8.50726 9.21459
120 4 O 2.07261 9.59195 9.39724
121 1 H 2.11455 7.24012 10.8158
122 1 H 3.82555 6.88796 10.4071
123 1 H 3.36305 8.38539 11.2833
124 1 H 2.59737 7.87484 8.36003
125 1 H 3.98766 8.80305 8.99504
126 1 H 2.47987 10.1754 10.0557
127 2 C 7.67491 -0.388696 16.4447
128 2 C 7.26817 -0.553502 14.9712
129 4 O 6.4375 17.0725 14.5536
130 1 H 8.43989 0.367622 16.4803
131 1 H 6.77713 -0.12133 17.0833
132 1 H 8.12726 17.4206 16.8775
133 1 H 8.25851 -0.68259 14.4824
134 1 H 6.85804 0.404885 14.6367
135 1 H 5.5245 17.2299 14.7972
136 2 C 9.96897 10.9815 2.70741
137 2 C 10.3305 11.7821 3.94172
138 4 O 11.2238 12.7975 3.47116
139 1 H 10.8429 10.6 2.17958
140 1 H 9.51849 10.0233 2.97065
141 1 H 9.27819 11.4775 1.96129
142 1 H 10.9068 11.2136 4.68022
143 1 H 9.46532 12.2756 4.29695
144 1 H 11.4453 13.3897 4.19392
145 2 C 5.47741 16.6944 1.15868
146 2 C 6.68126 16.9642 1.97769
147 4 O 7.84576 16.7707 1.06788
148 1 H 4.58761 16.6248 1.77554
149 1 H 5.3981 17.4939 0.376923
150 1 H 5.54277 15.8354 0.500097
151 1 H 6.8622 16.2383 2.85862
152 1 H 6.68305 -0.811397 2.5042
153 1 H 8.61564 16.4504 1.57808
154 2 C -0.459381 1.43563 16.8871
155 2 C 0.647047 1.15044 15.9348
156 4 O 0.404841 1.63935 14.6469
157 1 H 17.3417 1.09357 16.4691
158 1 H -0.22729 0.899635 17.7909
159 1 H -0.505164 2.48868 17.1844
160 1 H 0.846585 0.064284 15.8903
161 1 H 1.57872 1.58178 16.3584
162 1 H 0.819539 2.50053 14.5171
163 2 C 16.9319 9.91771 5.70049
164 2 C -0.413542 9.86792 6.10139
165 4 O 0.0400574 8.4948 6.09211
166 1 H 16.3677 9.36466 6.46145
167 1 H 16.4761 10.8968 5.69089
168 1 H 16.8313 9.3516 4.79808
169 1 H -0.378525 10.1718 7.16709
170 1 H 0.277012 10.4456 5.5029
171 1 H -0.353535 8.06332 6.84961
172 2 C 13.2582 8.57219 2.00193
173 2 C 12.5544 7.28535 2.24554
174 4 O 11.09 7.38869 2.17722
175 1 H 12.7678 9.06272 1.13521
176 1 H 13.1779 9.32021 2.82512
177 1 H 14.3415 8.4467 1.79551
178 1 H 12.8163 7.03662 3.27408
179 1 H 12.9593 6.49792 1.65697
180 1 H 10.8759 7.57838 1.24999
181 2 C 16.8925 2.68676 3.4521
182 2 C -0.555221 3.40113 2.99409
183 4 O -0.522232 4.64414 3.805
184 1 H 15.993 3.00833 2.93878
185 1 H 17.0346 1.63968 3.26968
186 1 H 16.6619 2.79467 4.53235
187 1 H -0.602366 3.69761 1.95722
188 1 H 0.365983 2.88213 3.14796
189 1 H 17.3483 4.90057 4.08438
190 2 C 7.59782 -0.300602 8.58619
191 2 C 6.33107 0.25509 8.04112
192 4 O 5.97767 1.56178 8.64215
193 1 H 7.76346 17.4343 8.17992
194 1 H 8.42954 0.34397 8.33046
195 1 H 7.61183 -0.473938 9.66567
196 1 H 5.46581 -0.344098 8.24271
197 1 H 6.53011 0.356501 6.94627
198 1 H 6.77993 1.92874 9.06351
199 2 C 10.8288 16.1586 15.2986
200 2 C 10.0958 15.7977 14.059
201 4 O 10.5069 14.5027 13.633
202 1 H 10.4435 17.0648 15.7375
203 1 H 10.7727 15.3903 16.0398
204 1 H 11.8759 16.3261 15.1151
205 1 H 10.3338 16.5024 13.2326
206 1 H 9.02572 15.8463 14.2106
207 1 H 11.1823 14.1908 14.2589
208 2 C 7.15051 8.46233 4.15665
209 2 C 6.82446 9.24929 2.92075
210 4 O 5.34589 9.54608 2.8264
211 1 H 6.65425 7.51525 4.05723
212 1 H 8.2148 8.31722 4.3218
213 1 H 6.67626 8.98192 5.00545
214 1 H 7.08181 8.70781 2.00275
215 1 H 7.34797 10.2045 2.78991
216 1 H 4.86967 8.7088 2.86149
217 2 C -0.278155 7.28934 14.3953
218 2 C 17.4398 8.41799 14.6861
219 4 O 17.4393 9.2542 13.5045
220 1 H -0.387244 6.95679 13.3874
221 1 H 0.666876 7.80675 14.4894
222 1 H -0.403232 6.48316 15.122
223 1 H 17.6073 9.00304 15.6092
224 1 H 16.4556 7.98654 14.7791
225 1 H 16.6782 9.81541 13.6543
226 2 C 15.2567 6.26237 7.54017
227 2 C 15.1491 5.63762 6.14073
228 4 O 16.2348 6.00246 5.39935
229 1 H 16.1481 5.97818 8.0476
230 1 H 15.1912 7.32784 7.32902
231 1 H 14.4135 6.02699 8.20722
232 1 H 14.2461 5.97068 5.63714
233 1 H 15.0927 4.54658 6.06222
234 1 H 16.0449 6.84144 4.97941
235 2 C 0.0761288 17.1054 0.747102
236 2 C 17.3807 16.7868 0.747074
237 4 O 17.0217 16.0398 1.86378
238 1 H 0.20387 17.6822 1.67513
239 1 H 0.592653 16.1973 0.963459
240 1 H 0.475464 17.6483 -0.0765269
241 1 H 17.1817 16.2794 -0.174138
242 1 H 16.7991 17.6601 0.614215
243 1 H 0.61145 4.86819 5.30187
244 2 C 13.3623 16.0338 7.0177
245 2 C 12.0563 16.5967 6.48288
246 4 O 11.197 15.5986 5.89349
247 1 H 13.7574 16.9743 7.40253
248 1 H 13.0033 15.6346 7.96251
249 1 H 13.9215 15.3896 6.41848
250 1 H 12.2172 17.4127 5.67436
251 1 H 11.4462 17.1159 7.26978
252 1 H 10.4823 15.9319 5.36506
253 2 C 2.13682 4.87621 -0.356989
254 2 C 0.711198 5.38653 -0.836697
255 4 O 0.344748 4.82003 16.6301
256 1 H 2.11159 4.25447 0.558464
257 1 H 2.50572 4.24521 17.6118
258 1 H 2.78973 5.76942 -0.301294
259 1 H 0.759599 6.44529 17.7556
260 1 H -0.0788136 5.13539 -0.183061
261 1 H -0.589979 4.96093 16.4325
262 2 C -0.908891 12.9057 3.66176
263 2 C 0.0874164 12.0505 2.91789
264 4 O 1.31296 12.2538 3.65932
265 1 H 17.747 12.554 4.66874
266 1 H -0.631354 14.0021 3.73476
267 1 H 16.8797 12.8923 3.11555
268 1 H 0.24825 12.4497 1.87895
269 1 H -0.333298 11.0579 2.89761
270 1 H 2.05904 12.1104 3.01937
271 2 C 14.449 -0.0389007 16.8692
272 2 C 14.8135 1.38753 16.3742
273 4 O 15.3075 2.11696 17.4715
274 1 H 13.6597 0.00741607 17.5919
275 1 H 14.1668 -0.567683 16.0012
276 1 H 15.3292 -0.573572 17.3079
277 1 H 13.9301 1.93118 15.991
278 1 H 15.5222 1.33674 15.5418
279 1 H 15.741 2.92559 17.1826
280 2 C 12.0435 0.795136 11.404
281 2 C 10.8369 1.40281 10.6742
282 4 O 10.63 2.79307 11.0319
283 1 H 11.867 0.812295 12.4729
284 1 H 12.2633 -0.244223 11.1211
285 1 H 12.9787 1.36616 11.2031
286 1 H 9.95257 0.894799 11.0726
287 1 H 10.9685 1.13486 9.62507
288 1 H 9.68333 2.89105 10.9277
289 2 C 6.25318 4.62223 10.5983
290 2 C 7.47744 4.00341 9.93203
291 4 O 7.8951 2.73165 10.5007
292 1 H 6.19153 4.31346 11.6765
293 1 H 6.28395 5.70089 10.5388
294 1 H 5.29594 4.30424 10.1981
295 1 H 8.29421 4.7048 9.92896
296 1 H 7.28094 3.84304 8.87271
297 1 H 7.15094 2.47 11.0549
298 2 C 12.8439 9.32464 5.69149
299 2 C 12.8316 10.3717 6.82288
300 4 O 11.9552 10.1871 7.89727
301 1 H 13.3517 9.75179 4.85712
302 1 H 13.2867 8.34092 5.7951
303 1 H 11.8265 9.1329 5.31849
304 1 H 12.5855 11.3127 6.3214
305 1 H 13.8414 10.4669 7.28485
306 1 H 11.0301 10.057 7.5875
307 2 C 11.5625 10.0906 14.5559
308 2 C 13.0432 10.4995 14.4109
309 4 O 13.8764 9.4059 14.1706
310 1 H 11.4352 9.19979 15.1807
311 1 H 10.9915 10.8219 15.1296
312 1 H 10.992 10.0715 13.6401
313 1 H 13.455 10.8384 15.3875
314 1 H 13.1605 11.3031 13.6899
315 1 H 13.8267 9.08044 13.2723
316 2 C 4.73631 12.2048 9.25598
317 2 C 3.62825 13.0889 8.66309
318 4 O 4.28 14.2917 8.2414
319 1 H 5.68349 12.7071 9.05986
320 1 H 4.62171 12.0739 10.327
321 1 H 4.73012 11.2347 8.74834
322 1 H 2.84158 13.3468 9.36047
323 1 H 3.21693 12.5896 7.75221
324 1 H 3.63821 14.8216 7.78784
325 2 C 0.339959 1.64686 10.1472
326 2 C -0.135093 1.2701 11.5101
327 4 O 0.638845 0.169649 12.0288
328 1 H 0.602073 0.802365 9.55156
329 1 H -0.482015 2.10384 9.63021
330 1 H 1.19686 2.33306 10.3014
331 1 H 17.5456 1.01016 11.4985
332 1 H -0.0675978 2.12164 12.1957
333 1 H 0.795859 0.431867 12.9638
334 2 C 3.0678 4.47528 12.3231
335 2 C 1.80608 5.01694 12.9493
336 4 O 1.4737 4.24749 14.103
337 1 H 3.58779 5.11213 11.6081
338 1 H 3.7541 4.22935 13.1944
339 1 H 2.99161 3.5302 11.8414
340 1 H 0.936679 5.03993 12.3096
341 1 H 1.99451 6.08363 13.2347
342 1 H 1.35003 4.78665 14.885
343 2 C 7.9253 13.8606 16.0027
344 2 C 7.39799 14.0156 17.4348
345 4 O 5.99849 13.5975 17.3995
346 1 H 9.05351 14.1583 15.8844
347 1 H 7.80793 12.853 15.6475
348 1 H 7.47366 14.6013 15.3535
349 1 H 7.3749 15.0784 17.5918
350 1 H 7.97542 13.4277 -0.639717
351 1 H 6.09077 12.7895 16.8808
352 2 C 3.7729 -0.0560383 10.8166
353 2 C 5.12555 0.244648 11.3952
354 4 O 5.16006 1.6419 11.5163
355 1 H 3.70429 0.403091 9.82326
356 1 H 3.54667 17.6277 10.7619
357 1 H 3.06509 0.389277 11.5461
358 1 H 5.898 -0.117726 10.7502
359 1 H 5.22929 -0.119196 12.4218
360 1 H 5.21401 1.96093 10.592
361 2 C 9.75259 15.2189 10.1022
362 2 C 10.8623 16.1726 10.4066
363 4 O 11.8381 15.5808 11.2912
364 1 H 9.11891 15.0647 10.9605
365 1 H 9.22349 15.4528 9.19388
366 1 H 10.1827 14.2648 9.8487
367 1 H 10.4955 17.1128 10.846
368 1 H 11.432 16.4276 9.5344
369 1 H 11.3608 15.0394 11.9635
370 2 C 12.6896 7.30982 10.1067
371 2 C 11.5987 6.21515 10.5384
372 4 O 10.442 6.28915 9.73756
373 1 H 12.5039 8.28737 10.487
374 1 H 13.6142 6.95914 10.5557
375 1 H 12.7842 7.30051 9.061
376 1 H 11.3222 6.51269 11.5494
377 1 H 12.1161 5.22478 10.496
378 1 H 10.7035 6.71267 8.91791
379 2 C 1.60029 8.71308 2.33724
380 2 C 1.89469 7.4939 3.1137
381 4 O 3.19398 6.92359 2.83856
382 1 H 1.47187 8.48342 1.27862
383 1 H 0.708449 9.19103 2.73189
384 1 H 2.38577 9.42262 2.53087
385 1 H 1.12087 6.72812 2.9266
386 1 H 1.85859 7.79066 4.17346
387 1 H 3.06995 6.37593 2.06484
388 2 C 12.8887 11.9349 10.8134
389 2 C 13.9513 12.6754 9.96604
390 4 O 13.5558 13.9836 9.58968
391 1 H 11.9313 11.9382 10.2941
392 1 H 13.0966 10.8838 10.9716
393 1 H 12.7827 12.4774 11.7587
394 1 H 14.2203 12.1946 9.0187
395 1 H 14.8903 12.6851 10.5903
396 1 H 13.3335 14.5483 10.3224
397 2 C 0.517121 13.1124 11.8396
398 2 C 1.4879 12.2763 12.614
399 4 O 2.45737 11.7639 11.6502
400 1 H 0.0093826 12.3773 11.1997
401 1 H -0.260494 13.5632 12.4403
402 1 H 0.987088 13.8929 11.242
403 1 H 0.931274 11.4435 13.0581
404 1 H 1.95012 12.824 13.3877
405 1 H 2.91818 11.0386 12.0859
406 2 C 3.02337 10.0108 16.7937
407 2 C 2.83951 11.5496 16.6496
408 4 O 3.95665 12.2142 15.9802
409 1 H 3.12004 9.57082 15.8069
410 1 H 3.86963 9.87419 17.4933
411 1 H 2.14094 9.60404 17.2493
412 1 H 2.56809 12.0066 17.6232
413 1 H 1.97198 11.7074 15.9487
414 1 H 4.31226 12.9438 16.5243
415 2 C 10.4538 6.59884 5.76227
416 2 C 9.62149 7.73532 6.38833
417 4 O 10.1193 8.17647 7.65349
418 1 H 10.0648 5.69429 6.18336
419 1 H 10.459 6.5326 4.66701
420 1 H 11.4853 6.74321 6.02291
421 1 H 8.58867 7.43158 6.58248
422 1 H 9.55848 8.58379 5.68065
423 1 H 9.39735 8.1459 8.30479
424 2 C 2.6541 14.172 0.978434
425 2 C 3.7945 13.3655 1.49999
426 4 O 3.29576 11.998 1.6405
427 1 H 1.95398 13.583 0.343042
428 1 H 1.97734 14.6139 1.73951
429 1 H 3.00886 15.0122 0.411303
430 1 H 3.98858 13.6457 2.5217
431 1 H 4.61676 13.4182 0.860739
432 1 H 4.07959 11.4861 1.92647
433 2 C 1.64786 4.93017 8.45284
434 2 C 0.648489 5.1197 7.29233
435 4 O 1.14175 4.5982 6.07857
436 1 H 2.65309 5.31041 8.21733
437 1 H 1.02646 5.45122 9.18054
438 1 H 1.76549 3.86418 8.68826
439 1 H 0.50923 6.17631 7.14244
440 1 H -0.151354 4.45754 7.59626
441 1 H 2.03249 4.83697 5.90005
442 2 C 14.1752 6.36067 17.8218
443 2 C 15.7147 6.50102 17.5819
444 4 O 16.0244 5.52985 16.5262
445 1 H 13.8123 7.31916 -0.509234
446 1 H 13.7118 6.00878 16.8809
447 1 H 14.021 5.56962 -0.202964
448 1 H 16.2836 6.25036 -0.266779
449 1 H 16.1316 7.47365 17.2946
450 1 H 15.6774 5.95262 15.6689
ITEM: TIMESTEP
6900
ITEM: NUMBER OF ATOMS
450
ITEM: BOX BOUNDS pp pp pp
-8.9594023313831705e-01 1.7820940233138124e+01
-8.9594023313831705e-01 1.7820940233138124e+01
-8.9594023313831705e-01 1.7820940233138124e+01
ITEM: ATOMS id type element x y z
1 2 C 6.6977 3.85194 -0.871967
2 2 C 7.45808 2.56678 -0.585446
3 4 O 8.87864 2.69985 -0.732881
4 1 H 7.03859 4.67829 -0.278796
5 1 H 6.86925 4.06582 16.7933
6 1 H 5.61642 3.66416 -0.760106
7 1 H 7.04463 1.85975 -1.31303
8 1 H 7.2645 2.28606 0.44484
9 1 H 9.2943 1.84829 -0.585645
10 2 C 11.2541 11.2197 -0.736212
11 2 C 12.1783 12.4402 -0.735726
12 4 O 11.468 13.5457 17.5186
13 1 H 11.0275 10.8596 16.99
14 1 H 11.571 10.337 -0.145649
15 1 H 10.2881 11.5475 -0.33479
16 1 H 13.0332 12.231 17.2825
17 1 H 12.5576 12.5947 0.273214
18 1 H 10.9643 13.9926 -0.526018
19 2 C 10.4391 5.57924 -0.337225
20 2 C 9.79538 6.88624 -0.719902
21 4 O 10.8206 7.94424 -0.614903
22 1 H 10.3543 5.47043 0.739276
23 1 H 9.89641 4.75225 -0.717484
24 1 H 11.4268 5.48074 -0.774862
25 1 H 9.00812 7.17682 -0.0226299
26 1 H 9.41738 6.96467 16.9829
27 1 H 10.511 8.77261 -0.92139
28 2 C 17.6866 6.67837 10.9614
29 2 C 17.7134 8.03161 10.2189
30 4 O -0.145278 8.06176 9.10731
31 1 H -0.102844 6.27185 11.3102
32 1 H 17.1851 6.79308 11.9335
33 1 H 17.1245 5.97787 10.3642
34 1 H -0.70375 8.74574 11.0044
35 1 H 16.7442 8.29408 9.85209
36 1 H 0.685573 8.52275 9.31472
37 2 C 1.60199 16.1326 14.4335
38 2 C 2.91739 16.5591 15.142
39 4 O 3.39069 17.6974 15.0023
40 1 H 1.52624 16.5228 13.4225
41 1 H 1.49945 15.0974 14.4081
42 1 H 0.828658 16.4669 15.0985
43 1 H 3.26519 15.9801 15.9367
44 1 H 17.4107 16.0303 2.73513
45 1 H 3.88712 2.66253 9.45434
46 2 C 7.03423 14.2642 6.45322
47 2 C 6.39293 13.1068 5.6883
48 4 O 6.50307 11.7848 6.26074
49 1 H 6.75751 15.1878 5.95123
50 1 H 6.62519 14.3085 7.46216
51 1 H 8.10784 14.1397 6.5303
52 1 H 6.9041 12.9983 4.71942
53 1 H 5.33277 13.327 5.52037
54 1 H 6.08114 11.8007 7.12679
55 2 C 16.2383 4.1458 13.4965
56 2 C 14.9004 4.42438 14.0044
57 4 O 14.7177 5.96074 14.0711
58 1 H 17.0523 4.48579 14.1428
59 1 H 16.4185 3.01693 13.6213
60 1 H 16.3895 4.45022 12.4582
61 1 H 14.6802 4.10879 15.037
62 1 H 14.2383 3.98617 13.2521
63 1 H 13.7606 5.95728 14.1609
64 2 C 8.93897 10.5646 9.93311
65 2 C 9.38632 9.37046 10.7183
66 4 O 8.62073 8.20721 10.3799
67 1 H 8.00559 10.9972 10.3401
68 1 H 9.70709 11.3082 9.97296
69 1 H 8.83986 10.3007 8.89633
70 1 H 9.31141 9.62419 11.7636
71 1 H 10.4185 9.17567 10.5002
72 1 H 9.23778 7.46396 10.2945
73 2 C 5.80819 3.27605 5.36243
74 2 C 4.8033 3.98908 6.22867
75 4 O 5.35744 4.58817 7.39118
76 1 H 6.44377 2.56765 5.90319
77 1 H 5.2865 2.66334 4.62381
78 1 H 6.44704 4.03349 4.86704
79 1 H 4.06215 3.24689 6.60743
80 1 H 4.25809 4.71791 5.61312
81 1 H 5.63473 3.81562 7.9011
82 2 C 5.13891 8.56979 13.134
83 2 C 5.31199 9.77624 13.9715
84 4 O 4.34846 10.6934 13.6246
85 1 H 4.19016 8.04762 13.1867
86 1 H 5.30972 8.8544 12.0814
87 1 H 5.99646 7.89717 13.4693
88 1 H 6.30036 10.2957 13.9233
89 1 H 5.22502 9.50799 15.0313
90 1 H 4.38561 11.3641 14.3406
91 2 C 11.0616 4.46681 13.4315
92 2 C 10.7793 5.6355 14.3853
93 4 O 12.0947 5.98765 15.0135
94 1 H 10.8402 3.45511 13.7421
95 1 H 10.4324 4.65586 12.6253
96 1 H 12.1058 4.51248 13.1074
97 1 H 9.9551 5.4402 15.0322
98 1 H 10.6558 6.49185 13.7969
99 1 H 12.1457 6.62935 15.6913
100 2 C 5.38766 15.1587 11.7417
101 2 C 6.86222 15.3283 11.5917
102 4 O 7.23015 16.7018 11.6829
103 1 H 4.90615 15.4361 10.8245
104 1 H 5.13743 14.0976 12.0077
105 1 H 5.0431 15.8043 12.582
106 1 H 7.16063 15.0665 10.5621
107 1 H 7.41821 14.6813 12.3566
108 1 H 6.96718 16.9785 12.5787
109 2 C 3.74629 16.3688 5.02743
110 2 C 2.71622 15.4371 4.55498
111 4 O 2.62661 14.3415 5.41452
112 1 H 3.47242 16.8446 5.94304
113 1 H 4.72371 15.8982 5.05076
114 1 H 3.90756 17.1526 4.23789
115 1 H 3.04538 15.0873 3.55297
116 1 H 1.80864 16.0138 4.41367
117 1 H 2.07143 13.6806 4.96789
118 2 C 3.02457 7.55577 10.4569
119 2 C 3.00668 8.27497 9.13201
120 4 O 2.12002 9.40002 9.11145
121 1 H 2.08992 7.09676 10.7142
122 1 H 3.87078 6.86444 10.4655
123 1 H 3.30378 8.30949 11.1849
124 1 H 2.70503 7.64316 8.29918
125 1 H 4.05653 8.56659 8.93051
126 1 H 2.23726 9.86809 9.95869
127 2 C 7.57964 -0.673966 16.2884
128 2 C 7.45055 -0.458732 14.809
129 4 O 6.64055 17.1919 14.2965
130 1 H 8.16567 0.0359811 16.8285
131 1 H 6.62034 -0.732834 16.7519
132 1 H 8.00082 17.075 16.439
133 1 H 8.43251 -0.515649 14.3313
134 1 H 6.98265 0.473668 14.5439
135 1 H 5.78794 17.2866 14.7557
136 2 C 9.87387 11.1344 2.98855
137 2 C 10.6907 11.6657 4.1126
138 4 O 11.4805 12.7228 3.65146
139 1 H 10.5355 10.8338 2.1789
140 1 H 9.30316 10.2698 3.18223
141 1 H 9.16793 11.8321 2.59499
142 1 H 11.293 10.9306 4.65212
143 1 H 9.93001 12.014 4.91032
144 1 H 11.6546 13.2698 4.41494
145 2 C 5.37288 17.0373 1.04306
146 2 C 6.71358 16.7979 1.80689
147 4 O 7.74887 16.7802 0.867006
148 1 H 4.47362 17.1629 1.72318
149 1 H 5.34707 18.0142 0.555317
150 1 H 5.12918 16.1968 0.397061
151 1 H 6.65245 15.8732 2.28697
152 1 H 6.83829 17.5346 2.63549
153 1 H 8.45683 17.3754 1.16471
154 2 C -0.225461 1.65157 17.0096
155 2 C 0.720268 1.2189 15.868
156 4 O 0.148845 1.50632 14.5901
157 1 H 17.6137 0.983832 17.0075
158 1 H 0.205056 1.5523 -0.706376
159 1 H -0.562183 2.68509 16.8639
160 1 H 0.893788 0.161584 15.9054
161 1 H 1.63703 1.77261 15.9383
162 1 H 0.3997 2.42547 14.376
163 2 C 16.8794 9.61952 5.83363
164 2 C -0.389186 9.78513 6.42081
165 4 O 0.24275 8.60586 6.68454
166 1 H 16.218 8.97093 6.42512
167 1 H 16.3974 10.6049 5.75879
168 1 H 16.8717 9.17037 4.82147
169 1 H -0.444582 10.4385 7.31077
170 1 H 0.186716 10.3748 5.67785
171 1 H 0.0533368 8.31172 7.5913
172 2 C 13.1611 8.90016 2.10076
173 2 C 12.5883 7.5063 2.42433
174 4 O 11.2165 7.39958 2.13731
175 1 H 13.3712 8.99095 1.06028
176 1 H 12.5711 9.77321 2.34232
177 1 H 14.1322 9.04604 2.56348
178 1 H 12.7325 7.19662 3.483
179 1 H 13.1467 6.76368 1.79678
180 1 H 11.2388 7.509 1.19045
181 2 C 17.0527 2.56207 3.45561
182 2 C -0.403963 3.32605 3.13337
183 4 O -0.381593 4.65825 3.72023
184 1 H 16.2462 3.22481 3.15588
185 1 H 16.9341 1.53806 3.05695
186 1 H 17.0099 2.35875 4.51804
187 1 H -0.401308 3.4803 2.04187
188 1 H 0.598153 2.85955 3.32665
189 1 H 17.5194 5.11053 4.02853
190 2 C 7.54718 -0.463406 8.70758
191 2 C 6.2007 0.0176625 8.21404
192 4 O 6.00019 1.34708 8.62162
193 1 H 7.92376 17.3974 8.16199
194 1 H 8.35699 0.280633 8.68756
195 1 H 7.4395 -0.795927 9.73718
196 1 H 5.31976 -0.613266 8.47764
197 1 H 6.19986 -0.0315441 7.13272
198 1 H 6.72504 1.65468 9.1643
199 2 C 10.7457 16.1218 15.4564
200 2 C 10.0381 15.7684 14.1131
201 4 O 10.4848 14.4839 13.5904
202 1 H 10.5975 17.1571 15.8358
203 1 H 10.5088 15.473 16.3139
204 1 H 11.8117 16.0612 15.2289
205 1 H 10.3662 16.4419 13.3328
206 1 H 8.95184 15.767 14.1541
207 1 H 10.8208 14.0087 14.3501
208 2 C 7.16461 8.69107 4.05737
209 2 C 6.62883 9.26012 2.74512
210 4 O 5.29485 9.57171 2.864
211 1 H 6.41273 7.94591 4.37852
212 1 H 8.0785 8.15667 3.8041
213 1 H 7.44037 9.43225 4.79644
214 1 H 6.74579 8.53633 1.94432
215 1 H 7.19227 10.123 2.39438
216 1 H 4.76314 8.82609 2.55563
217 2 C 0.0705621 7.58623 14.1653
218 2 C 17.5717 8.31601 14.6295
219 4 O 17.2914 9.46496 13.8318
220 1 H -0.0631064 7.14514 13.1867
221 1 H 0.90818 8.32113 14.2134
222 1 H 0.220307 6.74094 14.9063
223 1 H 17.6136 8.63152 15.6682
224 1 H 16.6672 7.62464 14.5854
225 1 H 16.342 9.6246 13.9244
226 2 C 14.7163 6.21968 7.41018
227 2 C 14.8353 5.80966 5.97735
228 4 O 16.1608 6.04653 5.27887
229 1 H 15.4648 5.71875 8.08515
230 1 H 14.7293 7.313 7.48968
231 1 H 13.7446 5.92058 7.71851
232 1 H 14.1016 6.34184 5.37614
233 1 H 14.6145 4.75861 5.84011
234 1 H 16.6773 6.59023 5.88412
235 2 C 0.325552 17.0601 0.746475
236 2 C 17.4804 16.9939 1.04187
237 4 O 17.0242 15.9132 1.85669
238 1 H 0.886837 17.1398 1.68272
239 1 H 0.616957 16.1666 0.204021
240 1 H 0.629969 17.9502 0.158613
241 1 H 16.9783 16.9906 0.0456177
242 1 H 17.2207 17.957 1.57544
243 1 H 0.451585 4.46884 5.17217
244 2 C 13.2392 16.3797 7.27608
245 2 C 12.0208 17.024 6.57119
246 4 O 11.3716 15.8922 5.97074
247 1 H 13.6679 16.8947 8.17834
248 1 H 12.6696 15.6358 7.69229
249 1 H 13.8763 15.861 6.46934
250 1 H 12.3456 17.6849 5.81605
251 1 H 11.3018 17.5506 7.22049
252 1 H 10.5885 16.1353 5.47845
253 2 C 1.90672 5.00974 -0.268686
254 2 C 0.523004 5.43411 -0.72246
255 4 O 0.164228 4.98815 16.7483
256 1 H 1.76734 4.83575 0.793693
257 1 H 2.23238 4.07241 17.9612
258 1 H 2.65256 5.78644 -0.248386
259 1 H 0.394665 6.54902 -0.646913
260 1 H -0.270893 5.08152 -0.00617301
261 1 H -0.782168 5.15014 16.5472
262 2 C 17.689 12.79 3.76716
263 2 C 0.0279717 12.1228 2.91031
264 4 O 1.16335 11.7018 3.67656
265 1 H 17.5175 12.1938 4.65933
266 1 H -0.724021 13.7272 4.22173
267 1 H 16.7977 12.9089 3.15679
268 1 H 0.41441 12.7652 2.14545
269 1 H -0.468491 11.3474 2.28405
270 1 H 1.96139 11.7008 3.16153
271 2 C 14.4049 0.14175 17.1219
272 2 C 14.786 1.37235 16.4323
273 4 O 15.1616 2.257 17.4476
274 1 H 13.6744 0.415018 17.9071
275 1 H 14.047 -0.62485 16.389
276 1 H 15.263 -0.242882 17.6582
277 1 H 13.9835 1.75798 15.8107
278 1 H 15.6278 1.08737 15.7701
279 1 H 15.4263 3.07148 16.9862
280 2 C 12.2396 0.812215 11.0056
281 2 C 10.785 1.01356 10.5985
282 4 O 10.4999 2.31905 10.9664
283 1 H 12.3304 1.06837 12.0617
284 1 H 12.6146 -0.205459 10.9463
285 1 H 12.9558 1.45237 10.4984
286 1 H 10.1545 0.285905 11.1183
287 1 H 10.7289 0.773628 9.52731
288 1 H 9.57747 2.47669 10.7224
289 2 C 6.32939 4.57135 10.9328
290 2 C 7.59335 4.15939 10.234
291 4 O 7.81616 2.71934 10.2679
292 1 H 6.39175 4.55932 12.005
293 1 H 6.12513 5.61922 10.6961
294 1 H 5.45255 3.97946 10.6865
295 1 H 8.45784 4.67782 10.6728
296 1 H 7.48683 4.32685 9.16321
297 1 H 7.34437 2.49176 11.0965
298 2 C 12.8416 9.24584 5.91186
299 2 C 12.9484 10.3395 6.91193
300 4 O 12.0818 10.1397 8.03452
301 1 H 13.5945 9.18699 5.13495
302 1 H 12.8345 8.25234 6.41087
303 1 H 11.9138 9.31599 5.36393
304 1 H 12.5695 11.2477 6.43937
305 1 H 13.9511 10.4849 7.21352
306 1 H 12.1406 9.24119 8.35478
307 2 C 11.5251 10.3699 14.3382
308 2 C 12.9612 10.5676 14.6677
309 4 O 13.7406 9.48004 13.9964
310 1 H 11.0933 9.59479 14.9896
311 1 H 10.8593 11.2524 14.4584
312 1 H 11.3003 10.0865 13.3106
313 1 H 13.2243 10.4085 15.6976
314 1 H 13.3316 11.5271 14.2865
315 1 H 13.4147 9.44399 13.08
316 2 C 4.7066 12.0657 9.24564
317 2 C 3.76035 13.0274 8.53251
318 4 O 4.25804 14.3295 8.27804
319 1 H 5.74969 12.2248 8.96386
320 1 H 4.63301 12.2696 10.3107
321 1 H 4.43632 11.0386 9.0639
322 1 H 2.86916 13.1903 9.15631
323 1 H 3.37993 12.6165 7.61566
324 1 H 4.1292 14.5187 7.32352
325 2 C 0.533968 1.699 10.1087
326 2 C -0.194535 1.19577 11.3938
327 4 O 0.68954 0.521315 12.1926
328 1 H 0.776624 0.890556 9.37081
329 1 H 0.0532468 2.59986 9.61829
330 1 H 1.50657 1.97035 10.461
331 1 H 17.6121 0.620481 11.196
332 1 H -0.556617 2.09127 11.9347
333 1 H 0.57489 0.81817 13.0905
334 2 C 2.57849 4.20915 12.2919
335 2 C 1.80587 5.01338 13.3032
336 4 O 1.13607 4.06876 14.1284
337 1 H 2.66994 4.73968 11.3569
338 1 H 3.59781 3.8868 12.5344
339 1 H 1.98297 3.27894 12.1279
340 1 H 1.16028 5.7276 12.8735
341 1 H 2.46289 5.62939 13.8935
342 1 H 1.18172 4.40037 15.0362
343 2 C 7.65847 13.8143 15.7715
344 2 C 7.27574 14.2435 17.1624
345 4 O 6.1247 13.5376 17.6251
346 1 H 8.73282 13.8768 15.5847
347 1 H 7.50055 12.7529 15.7256
348 1 H 7.20337 14.4335 14.9768
349 1 H 7.06253 15.314 17.1989
350 1 H 8.17385 13.9505 -0.903888
351 1 H 6.34109 12.6094 17.7019
352 2 C 4.03519 -0.21802 10.8151
353 2 C 5.12922 0.433441 11.7029
354 4 O 5.22305 1.8734 11.5769
355 1 H 3.86773 0.273303 9.85966
356 1 H 4.30869 17.4932 10.6866
357 1 H 3.09795 -0.237529 11.3683
358 1 H 6.10145 -0.0272977 11.5513
359 1 H 4.85594 0.282372 12.7414
360 1 H 5.17927 2.0368 10.6315
361 2 C 9.91962 15.175 9.94603
362 2 C 10.8699 16.1409 10.6871
363 4 O 11.7743 15.3462 11.3877
364 1 H 9.73236 14.364 10.6574
365 1 H 8.97984 15.6557 9.63698
366 1 H 10.263 14.7067 9.03082
367 1 H 10.2795 16.8114 11.3454
368 1 H 11.4872 16.7529 10.0432
369 1 H 11.3684 14.8872 12.1192
370 2 C 12.6913 7.2433 10.2894
371 2 C 11.7012 6.15862 10.5745
372 4 O 10.4605 6.28047 9.84371
373 1 H 12.191 8.19635 10.5793
374 1 H 13.6269 7.14224 10.8641
375 1 H 12.9085 7.20998 9.2086
376 1 H 11.5256 6.176 11.6252
377 1 H 12.2033 5.21611 10.3693
378 1 H 10.5013 6.95287 9.11983
379 2 C 1.64335 8.77012 2.33336
380 2 C 2.20716 7.68599 3.27556
381 4 O 3.22454 6.90928 2.62669
382 1 H 1.48418 8.33852 1.3501
383 1 H 0.656243 9.10132 2.67351
384 1 H 2.35555 9.60246 2.19456
385 1 H 1.41523 6.96811 3.59005
386 1 H 2.64618 8.09959 4.17484
387 1 H 2.86742 6.41914 1.89286
388 2 C 12.6575 12.117 11.0849
389 2 C 13.5668 12.6541 9.97928
390 4 O 13.3892 13.9818 9.64311
391 1 H 11.5966 12.0443 10.861
392 1 H 13.0305 11.0763 11.2676
393 1 H 12.7395 12.6632 12.0207
394 1 H 13.4649 12.1243 9.04129
395 1 H 14.5747 12.4669 10.2961
396 1 H 12.8695 14.4716 10.3123
397 2 C 0.647278 12.9805 12.0222
398 2 C 1.43512 11.7485 12.4566
399 4 O 2.5719 11.653 11.6373
400 1 H 0.411218 12.8403 10.9636
401 1 H -0.328411 13.0683 12.5611
402 1 H 1.21592 13.8993 12.0592
403 1 H 0.801389 10.8852 12.2722
404 1 H 1.6469 11.7444 13.5712
405 1 H 3.20417 11.0875 12.0869
406 2 C 2.81679 9.96212 16.633
407 2 C 2.85732 11.4873 16.6289
408 4 O 4.09549 11.8159 16.0223
409 1 H 2.86705 9.73406 15.5819
410 1 H 3.7144 9.64423 17.1593
411 1 H 1.96528 9.5346 17.1995
412 1 H 2.8816 11.9045 17.6353
413 1 H 1.9882 11.907 16.1402
414 1 H 4.2765 12.7242 16.2789
415 2 C 10.2645 6.48859 5.90815
416 2 C 9.62285 7.81633 6.28867
417 4 O 10.0307 8.05286 7.64357
418 1 H 10.0172 5.77605 6.69958
419 1 H 9.91613 6.06181 4.96234
420 1 H 11.3567 6.64163 5.91221
421 1 H 8.53349 7.75358 6.24765
422 1 H 9.98777 8.59854 5.59332
423 1 H 9.43932 8.667 8.06331
424 2 C 2.51856 14.034 1.13114
425 2 C 3.72634 13.1455 1.40429
426 4 O 3.28744 11.8373 1.8248
427 1 H 2.13149 14.0389 0.150402
428 1 H 1.62611 13.8052 1.71279
429 1 H 2.87048 15.0734 1.1919
430 1 H 4.40426 13.513 2.214
431 1 H 4.36322 13.1094 0.489153
432 1 H 4.08512 11.3507 2.04721
433 2 C 1.37641 4.83808 8.43203
434 2 C 0.407968 5.02567 7.25245
435 4 O 1.00394 4.58444 5.98176
436 1 H 2.11878 5.57119 8.29657
437 1 H 0.808518 5.01709 9.34469
438 1 H 1.70953 3.79304 8.35769
439 1 H -0.0683697 6.02173 7.25674
440 1 H -0.395822 4.32461 7.56138
441 1 H 1.92554 4.78409 5.74932
442 2 C 14.4461 6.51664 -0.950583
443 2 C 15.8757 6.63987 17.2929
444 4 O 16.2774 5.54482 16.5284
445 1 H 14.2248 7.37841 -0.372915
446 1 H 13.8242 6.57499 16.8782
447 1 H 14.3313 5.55222 -0.510685
448 1 H 16.5441 6.59304 -0.593284
449 1 H 16.1538 7.52991 16.7054
450 1 H 16.1159 5.66415 15.6327
ITEM: TIMESTEP
7000
ITEM: NUMBER OF ATOMS
450
ITEM: BOX BOUNDS pp pp pp
-8.9255922023784429e-01 1.7817559220237669e+01
-8.9255922023784429e-01 1.7817559220237669e+01
-8.9255922023784429e-01 1.7817559220237669e+01
ITEM: ATOMS id type element x y z
1 2 C 6.62496 4.00179 17.3459
2 2 C 7.31284 2.70023 -1.00106
3 4 O 8.72952 3.01397 17.7461
4 1 H 6.64724 4.68093 -0.499304
5 1 H 7.10756 4.42799 16.4708
6 1 H 5.57175 3.84785 17.1783
7 1 H 7.1048 1.95396 16.9217
8 1 H 6.92174 2.26059 -0.0749612
9 1 H 9.27877 2.43453 -0.454427
10 2 C 11.1518 11.3367 -0.647006
11 2 C 12.1057 12.5084 -0.513396
12 4 O 11.6772 13.7524 17.5477
13 1 H 10.6317 11.221 17.1116
14 1 H 11.7074 10.4097 -0.554491
15 1 H 10.3905 11.3848 0.101614
16 1 H 13.0405 12.2162 17.7937
17 1 H 12.2901 12.7226 0.548655
18 1 H 10.8602 14.038 -0.747013
19 2 C 10.2983 5.58701 -0.612543
20 2 C 9.7829 6.94462 17.6966
21 4 O 10.7516 7.9463 -0.794618
22 1 H 10.4833 5.74557 0.476213
23 1 H 9.51195 4.8481 -0.655519
24 1 H 11.2031 5.23957 17.5641
25 1 H 8.90337 7.18384 -0.391777
26 1 H 9.4551 7.08233 16.6684
27 1 H 10.4173 8.82775 -0.942429
28 2 C 17.6486 6.74979 10.7869
29 2 C 17.806 8.14332 10.3722
30 4 O 0.0124673 8.19775 9.25814
31 1 H -0.212266 6.33343 11.3613
32 1 H 16.7627 6.58193 11.4354
33 1 H 17.5246 6.15112 9.89553
34 1 H -0.664919 8.74242 11.2374
35 1 H 16.8529 8.55164 9.96391
36 1 H 0.806707 8.69224 9.48692
37 2 C 1.61869 16.0637 14.5698
38 2 C 2.87196 16.3671 15.2563
39 4 O 3.56932 17.3582 15.1287
40 1 H 1.46 16.7127 13.6603
41 1 H 1.45505 15.0163 14.2454
42 1 H 0.933624 16.3628 15.4104
43 1 H 3.05188 15.6329 16.151
44 1 H 17.814 15.4115 2.24822
45 1 H 4.64375 3.01845 9.17065
46 2 C 7.30994 14.0162 6.26499
47 2 C 6.26769 13.0434 5.72934
48 4 O 6.82889 11.7706 5.84713
49 1 H 6.98625 15.0608 6.14376
50 1 H 7.44086 13.8676 7.33028
51 1 H 8.24158 13.7627 5.74779
52 1 H 6.05796 13.2175 4.67124
53 1 H 5.33684 13.1549 6.27137
54 1 H 6.74201 11.4962 6.76644
55 2 C 16.3039 4.10199 13.5835
56 2 C 14.8739 4.5805 13.988
57 4 O 14.9687 5.98377 14.0442
58 1 H 17.0883 4.68645 14.0522
59 1 H 16.5618 3.13127 13.8969
60 1 H 16.5029 4.15025 12.4783
61 1 H 14.5626 4.28286 15.0219
62 1 H 14.0801 4.08575 13.4484
63 1 H 14.1044 6.41242 13.9193
64 2 C 8.81634 10.3297 9.42258
65 2 C 9.2466 9.25883 10.4274
66 4 O 8.26529 8.27522 10.686
67 1 H 7.80973 10.6074 9.65117
68 1 H 9.49667 11.1944 9.50013
69 1 H 8.83234 10.0243 8.3699
70 1 H 9.50689 9.81354 11.3522
71 1 H 10.1649 8.71725 10.1805
72 1 H 8.67556 7.39537 10.7622
73 2 C 5.742 3.36241 5.29372
74 2 C 4.92968 4.11143 6.31171
75 4 O 5.71528 4.49191 7.40882
76 1 H 6.10621 2.42409 5.72236
77 1 H 5.17688 3.10457 4.40854
78 1 H 6.66463 3.89856 5.1056
79 1 H 4.08744 3.52265 6.61216
80 1 H 4.57688 5.04297 5.86134
81 1 H 5.94726 3.72861 7.92694
82 2 C 5.13754 8.59382 13.0073
83 2 C 5.47193 9.85495 13.7665
84 4 O 4.46843 10.8677 13.468
85 1 H 4.12938 8.17017 13.0649
86 1 H 5.38777 8.90649 11.997
87 1 H 5.84789 7.86938 13.2117
88 1 H 6.43707 10.2648 13.4776
89 1 H 5.43189 9.65576 14.8439
90 1 H 4.51488 11.3761 14.2849
91 2 C 11.157 4.43283 13.7411
92 2 C 10.8882 5.83807 14.0804
93 4 O 11.786 6.33175 14.981
94 1 H 11.7246 3.94423 14.5584
95 1 H 10.3082 3.7262 13.4696
96 1 H 11.7942 4.42032 12.8573
97 1 H 9.91584 5.82061 14.6355
98 1 H 10.7622 6.67219 13.303
99 1 H 11.2969 6.68252 15.7733
100 2 C 5.48435 14.6316 11.8722
101 2 C 6.89771 15.055 11.3821
102 4 O 7.14108 16.481 11.3705
103 1 H 4.78978 14.6709 11.0429
104 1 H 5.5638 13.6178 12.1872
105 1 H 5.16464 15.1319 12.7634
106 1 H 7.0581 14.7467 10.3733
107 1 H 7.63841 14.5034 11.9582
108 1 H 6.94087 16.7177 12.2839
109 2 C 3.86574 16.3536 5.18921
110 2 C 2.90716 15.2965 4.48916
111 4 O 2.67903 14.1208 5.27052
112 1 H 3.42547 16.6107 6.16577
113 1 H 4.90052 15.9525 5.41362
114 1 H 3.89142 17.2253 4.56
115 1 H 3.33546 14.9799 3.5595
116 1 H 1.96588 15.848 4.28525
117 1 H 2.07059 13.5551 4.76959
118 2 C 2.92185 7.39622 10.314
119 2 C 3.13025 8.33203 9.10445
120 4 O 2.32154 9.52286 9.11963
121 1 H 1.94981 6.90439 10.2156
122 1 H 3.70988 6.63736 10.2798
123 1 H 3.00071 7.91278 11.28
124 1 H 2.85341 7.81121 8.21595
125 1 H 4.16701 8.61737 8.99545
126 1 H 2.5219 9.93939 9.96746
127 2 C 7.67962 -0.928794 16.2135
128 2 C 7.48261 -0.455416 14.8041
129 4 O 6.60607 17.3659 14.1619
130 1 H 8.35849 -0.21734 16.799
131 1 H 6.77052 17.8197 16.8118
132 1 H 8.05135 16.7621 16.2805
133 1 H 8.39954 -0.441791 14.2368
134 1 H 7.01982 0.552726 14.725
135 1 H 5.75999 17.8236 14.0857
136 2 C 9.89361 11.295 3.2378
137 2 C 10.9454 11.6752 4.26801
138 4 O 11.6859 12.8215 3.80485
139 1 H 10.2657 11.0513 2.22747
140 1 H 9.24671 10.4509 3.5924
141 1 H 9.1425 12.0666 3.04995
142 1 H 11.6298 10.857 4.4079
143 1 H 10.4377 11.7086 5.16677
144 1 H 12.1169 13.251 4.54324
145 2 C 5.34297 17.2905 0.999563
146 2 C 6.59602 16.7049 1.52789
147 4 O 7.68383 16.8237 0.601115
148 1 H 4.51342 17.1966 1.64914
149 1 H 5.36187 -0.360201 0.897514
150 1 H 5.06542 16.6796 0.14382
151 1 H 6.3044 15.5977 1.70711
152 1 H 6.84339 17.2455 2.41758
153 1 H 8.34567 17.1046 1.23809
154 2 C 0.10456 1.74776 17.1642
155 2 C 0.725618 1.34544 15.833
156 4 O -0.197792 1.48616 14.7265
157 1 H -0.678174 1.09083 17.5155
158 1 H 0.830721 1.74935 -0.721969
159 1 H -0.321096 2.73263 17.0741
160 1 H 0.855443 0.257424 15.8464
161 1 H 1.67413 1.85344 15.6295
162 1 H -0.192884 2.42366 14.5302
163 2 C 16.8167 9.32903 6.0534
164 2 C -0.487135 9.73897 6.53141
165 4 O 0.441216 8.59509 6.5551
166 1 H 16.252 8.72624 6.73953
167 1 H 16.2466 10.1818 5.68644
168 1 H 16.9283 8.75959 5.12529
169 1 H -0.484314 10.3241 7.43061
170 1 H -0.148979 10.3931 5.73488
171 1 H 0.36837 8.2431 7.44192
172 2 C 13.1764 9.12184 2.2854
173 2 C 12.6608 7.81566 2.77561
174 4 O 11.3437 7.62354 2.34528
175 1 H 13.3834 9.10727 1.17874
176 1 H 12.4043 9.86749 2.43242
177 1 H 14.1208 9.5278 2.64755
178 1 H 12.5868 7.71719 3.84746
179 1 H 13.2356 7.0047 2.35505
180 1 H 11.4306 7.41671 1.39072
181 2 C 17.1498 2.4576 3.50766
182 2 C -0.389394 3.41519 3.1317
183 4 O -0.362129 4.68084 3.71563
184 1 H 16.0982 2.67163 3.28094
185 1 H 17.3346 1.58239 2.84219
186 1 H 17.3123 1.84289 4.40795
187 1 H -0.443912 3.56159 2.02978
188 1 H 0.572096 2.95386 3.35751
189 1 H 17.5215 5.0483 4.07725
190 2 C 7.5288 -0.613585 8.73573
191 2 C 6.21679 -0.0177176 8.2049
192 4 O 5.90349 1.29845 8.66244
193 1 H 7.48241 17.0148 8.72457
194 1 H 8.45398 -0.363743 8.22697
195 1 H 7.64243 -0.316868 9.77529
196 1 H 5.33965 -0.587447 8.5172
197 1 H 6.2008 -0.0210247 7.09666
198 1 H 6.67879 1.79088 9.01743
199 2 C 10.6419 16.1588 15.5588
200 2 C 10.1468 15.8059 14.2248
201 4 O 10.3061 14.4428 13.7979
202 1 H 10.401 17.2041 15.7229
203 1 H 10.1548 15.5743 16.3447
204 1 H 11.7366 16.075 15.5838
205 1 H 10.6361 16.3806 13.4588
206 1 H 9.0719 16.0528 14.1899
207 1 H 10.6272 14.0048 14.5755
208 2 C 7.07896 8.93388 3.83589
209 2 C 6.3328 9.2258 2.51982
210 4 O 4.9708 9.65615 2.69147
211 1 H 6.7082 8.00373 4.27384
212 1 H 8.11348 8.7587 3.54599
213 1 H 7.05788 9.77773 4.51686
214 1 H 6.27926 8.34962 1.83788
215 1 H 6.82885 10.083 2.0822
216 1 H 4.47254 8.9691 3.14794
217 2 C 0.451743 8.26562 14.1688
218 2 C 17.6586 8.32168 14.5896
219 4 O 17.0755 9.53963 14.0767
220 1 H 0.507702 8.06848 13.0965
221 1 H 0.963639 9.13095 14.4493
222 1 H 0.880369 7.44787 14.6713
223 1 H 17.585 8.44905 15.6639
224 1 H 17.1523 7.47101 14.2225
225 1 H 16.1275 9.59625 14.2543
226 2 C 14.4712 6.0787 7.09837
227 2 C 14.7126 5.93121 5.59559
228 4 O 16.098 6.07773 5.2978
229 1 H 15.0261 5.29236 7.59735
230 1 H 14.8967 7.00146 7.49368
231 1 H 13.4051 6.00537 7.33177
232 1 H 14.2364 6.68754 4.94641
233 1 H 14.435 4.9012 5.34314
234 1 H 16.6022 5.93171 6.10046
235 2 C 0.344273 16.9596 0.7941
236 2 C 17.7174 17.1806 1.39769
237 4 O 17.1566 15.9004 1.74639
238 1 H 1.12834 16.6085 1.46049
239 1 H 0.281524 16.3443 -0.14158
240 1 H 0.746701 17.9547 0.420721
241 1 H 17.0087 17.6047 0.711984
242 1 H 17.8522 -0.952666 2.28042
243 1 H 0.549511 4.44191 5.185
244 2 C 13.1563 16.748 7.59739
245 2 C 11.9852 17.2246 6.73608
246 4 O 11.3959 16.2092 5.87239
247 1 H 13.6578 17.6363 7.85628
248 1 H 12.9939 16.031 8.49538
249 1 H 13.8429 16.2653 6.86258
250 1 H 12.4843 -0.551124 6.31626
251 1 H 11.1143 17.4624 7.35356
252 1 H 10.9034 16.5582 5.12057
253 2 C 1.71047 5.0868 -0.131891
254 2 C 0.296033 5.45903 -0.512859
255 4 O 0.221993 5.2915 16.7222
256 1 H 2.17263 5.57063 0.722136
257 1 H 1.66864 3.99025 -0.0583992
258 1 H 2.34565 5.29704 17.7238
259 1 H 0.112443 6.47908 -0.234812
260 1 H -0.440594 4.83009 -0.0383524
261 1 H -0.720513 5.35857 16.6098
262 2 C 17.5671 12.6971 3.9293
263 2 C -0.188892 11.9745 3.02362
264 4 O 1.03794 11.7315 3.67025
265 1 H 17.0038 12.0565 4.66105
266 1 H -0.476899 13.3093 4.50259
267 1 H 16.8366 13.3011 3.4073
268 1 H 0.00410425 12.447 2.07543
269 1 H -0.644601 11.0373 2.69688
270 1 H 1.86158 11.7261 3.11673
271 2 C 14.3522 0.173133 17.3792
272 2 C 14.7744 1.49798 16.5344
273 4 O 15.0444 2.65177 17.367
274 1 H 13.4498 0.311737 -0.732734
275 1 H 14.1188 -0.67936 16.7156
276 1 H 15.1258 -0.106362 -0.659665
277 1 H 13.9693 1.6837 15.8008
278 1 H 15.6542 1.13916 15.994
279 1 H 15.6748 3.20354 16.8851
280 2 C 12.4377 0.75003 10.632
281 2 C 10.94 0.665372 10.6026
282 4 O 10.3608 1.93294 10.8376
283 1 H 12.8215 1.00885 11.6399
284 1 H 12.9205 -0.208453 10.4619
285 1 H 12.8867 1.49093 10.0029
286 1 H 10.5397 -0.124986 11.2427
287 1 H 10.7351 0.337513 9.56697
288 1 H 9.41253 1.87136 10.606
289 2 C 6.53306 4.92558 11.1054
290 2 C 7.72998 4.24582 10.4987
291 4 O 7.44684 2.8859 10.2274
292 1 H 6.10003 4.30934 11.8738
293 1 H 6.69147 5.88993 11.6085
294 1 H 5.7721 5.02793 10.3192
295 1 H 8.59538 4.34784 11.161
296 1 H 8.00718 4.65474 9.52888
297 1 H 7.05001 2.56385 11.0386
298 2 C 13.0215 9.04515 6.21367
299 2 C 13.1741 10.2733 7.11753
300 4 O 12.2059 10.1058 8.15482
301 1 H 13.8279 9.00786 5.44576
302 1 H 13.1131 8.16031 6.80922
303 1 H 12.124 9.00693 5.61332
304 1 H 13.1679 11.2409 6.60476
305 1 H 14.1983 10.1872 7.59661
306 1 H 11.4013 9.86127 7.72371
307 2 C 11.4736 10.638 14.0916
308 2 C 12.8885 10.5014 14.6297
309 4 O 13.725 9.56321 13.9911
310 1 H 10.9855 9.69741 13.9663
311 1 H 10.8899 11.2245 14.7794
312 1 H 11.3677 11.0906 13.1124
313 1 H 12.9614 10.2531 15.6767
314 1 H 13.3522 11.4827 14.5323
315 1 H 13.9102 9.85908 13.0864
316 2 C 4.73821 12.1968 9.3154
317 2 C 3.73036 12.8033 8.38959
318 4 O 4.09282 14.2196 8.32152
319 1 H 5.75553 12.1573 8.92439
320 1 H 4.72986 12.8049 10.2207
321 1 H 4.45646 11.186 9.60263
322 1 H 2.73031 12.7216 8.79128
323 1 H 3.64871 12.3597 7.39218
324 1 H 3.33404 14.7629 8.02352
325 2 C 0.680182 1.58978 9.97471
326 2 C -0.0749712 1.30622 11.234
327 4 O 0.776179 0.595542 12.1665
328 1 H 1.15625 0.68134 9.63153
329 1 H 0.0687308 2.07458 9.23553
330 1 H 1.50982 2.27779 10.0767
331 1 H 17.7447 0.700217 10.9623
332 1 H -0.421904 2.23648 11.6617
333 1 H 0.494163 0.868247 13.0723
334 2 C 2.10041 3.77535 12.2773
335 2 C 1.8416 4.66207 13.5439
336 4 O 0.91389 3.98704 14.4191
337 1 H 2.70579 4.41824 11.6223
338 1 H 2.57571 2.84905 12.4387
339 1 H 1.0797 3.68322 11.8187
340 1 H 1.33442 5.61879 13.1643
341 1 H 2.78054 4.92347 14.0747
342 1 H 1.08333 4.30907 15.3145
343 2 C 7.28287 13.6841 15.5739
344 2 C 7.07866 14.2531 16.9821
345 4 O 6.16274 13.5359 17.7978
346 1 H 7.75277 14.3422 14.9381
347 1 H 8.03501 12.8203 15.5486
348 1 H 6.32271 13.3916 15.1185
349 1 H 6.75058 15.2826 17.0319
350 1 H 8.05489 14.3204 17.4372
351 1 H 6.48461 12.6973 18.1158
352 2 C 4.04641 -0.226843 11.0917
353 2 C 5.02875 0.542561 11.9382
354 4 O 5.242 1.92183 11.4779
355 1 H 4.32852 -0.106417 10.035
356 1 H 4.018 17.4126 11.3497
357 1 H 3.05715 0.207139 11.1603
358 1 H 6.00398 0.0250319 11.9987
359 1 H 4.71615 0.65021 12.9717
360 1 H 5.10361 1.95507 10.5391
361 2 C 10.1645 15.1301 9.61789
362 2 C 10.7641 15.9361 10.726
363 4 O 11.8852 15.3851 11.5228
364 1 H 9.66247 14.2216 9.96211
365 1 H 9.34842 15.7617 9.23428
366 1 H 10.8675 14.8629 8.80493
367 1 H 9.94523 16.11 11.3847
368 1 H 11.0798 16.9126 10.3279
369 1 H 11.5147 14.9892 12.3237
370 2 C 12.7486 7.34201 10.3484
371 2 C 11.8407 6.10688 10.5508
372 4 O 10.5692 6.2268 9.95059
373 1 H 12.2416 8.2342 10.7048
374 1 H 13.6739 7.18514 10.8708
375 1 H 12.9874 7.58938 9.29096
376 1 H 11.7247 5.90118 11.6023
377 1 H 12.3782 5.2359 10.1758
378 1 H 10.717 6.75838 9.17819
379 2 C 1.5855 8.67623 2.31275
380 2 C 2.39565 7.82044 3.30904
381 4 O 3.42062 7.06929 2.60622
382 1 H 0.731057 8.12945 1.90752
383 1 H 1.1508 9.49112 2.88446
384 1 H 2.16319 9.03623 1.46195
385 1 H 1.79804 7.15017 3.88549
386 1 H 2.90818 8.40191 4.06818
387 1 H 3.28478 7.07512 1.66134
388 2 C 12.4913 12.2829 11.257
389 2 C 13.342 12.4956 10.0763
390 4 O 13.2113 13.905 9.62489
391 1 H 11.5058 12.7008 11.0592
392 1 H 12.3641 11.2415 11.45
393 1 H 12.8392 12.7327 12.179
394 1 H 13.0172 11.9319 9.21201
395 1 H 14.4191 12.273 10.2756
396 1 H 12.7391 14.3653 10.3438
397 2 C 0.764173 12.7504 12.2112
398 2 C 1.35789 11.3465 12.172
399 4 O 2.61293 11.2096 11.5384
400 1 H 0.774617 13.2799 11.2851
401 1 H -0.242181 12.6675 12.5919
402 1 H 1.33676 13.3976 12.8792
403 1 H 0.728569 10.6695 11.571
404 1 H 1.3349 10.9764 13.1744
405 1 H 3.31694 11.1751 12.224
406 2 C 2.53513 9.94857 16.5195
407 2 C 2.89519 11.4057 16.7975
408 4 O 4.24268 11.6845 16.288
409 1 H 2.52169 9.73136 15.4586
410 1 H 3.1863 9.25597 17.0284
411 1 H 1.56577 9.92921 17.0293
412 1 H 2.97915 11.6092 17.8739
413 1 H 2.0866 12.0661 16.3369
414 1 H 4.43297 12.5846 16.5109
415 2 C 10.1081 6.34871 5.84352
416 2 C 9.55918 7.64471 6.43952
417 4 O 10.1117 7.83834 7.72231
418 1 H 9.83143 5.42047 6.36674
419 1 H 9.63434 6.33628 4.87814
420 1 H 11.1993 6.34911 5.80497
421 1 H 8.48209 7.62804 6.41417
422 1 H 9.94746 8.40503 5.78677
423 1 H 9.46928 7.6827 8.41649
424 2 C 2.68458 13.8679 1.17488
425 2 C 3.85312 12.9239 1.50683
426 4 O 3.31173 11.6765 1.89127
427 1 H 1.87529 13.2787 0.663137
428 1 H 2.23402 14.2009 2.11417
429 1 H 2.88429 14.6271 0.368692
430 1 H 4.6315 13.2435 2.16059
431 1 H 4.42478 12.8025 0.567209
432 1 H 4.05675 11.0576 2.0183
433 2 C 1.19272 4.63733 8.40313
434 2 C 0.260992 4.83239 7.17229
435 4 O 1.03304 4.65797 6.03521
436 1 H 1.96383 5.39712 8.15137
437 1 H 0.825648 4.94918 9.37605
438 1 H 1.55891 3.60476 8.34839
439 1 H -0.259929 5.76291 7.18182
440 1 H -0.587937 4.16422 7.20621
441 1 H 1.63998 5.44164 5.89715
442 2 C 14.5288 6.65803 17.7997
443 2 C 15.9493 6.70172 17.3662
444 4 O 16.401 5.6891 16.3622
445 1 H 14.336 7.51816 -0.241639
446 1 H 13.9091 6.92589 16.9406
447 1 H 14.3339 5.66869 -0.417598
448 1 H 16.6483 6.55114 -0.511023
449 1 H 16.1702 7.62053 16.8309
450 1 H 16.0301 5.96687 15.4587
ITEM: TIMESTEP
7100
ITEM: NUMBER OF ATOMS
450
ITEM: BOX BOUNDS pp pp pp
-8.8720588062811778e-01 1.7812205880627950e+01
-8.8720588062811778e-01 1.7812205880627950e+01
-8.8720588062811778e-01 1.7812205880627950e+01
ITEM: ATOMS id type element x y z
1 2 C 6.50525 4.15045 16.8466
2 2 C 7.08078 2.84087 17.2275
3 4 O 8.43009 2.9425 17.5452
4 1 H 6.70695 4.85113 17.6813
5 1 H 6.98655 4.58324 15.9603
6 1 H 5.42435 4.13609 16.7773
7 1 H 6.95466 2.10374 16.4541
8 1 H 6.54434 2.41413 -0.629608
9 1 H 8.83009 2.0891 17.4854
10 2 C 11.1034 11.5173 -0.543594
11 2 C 12.1418 12.5896 -0.335536
12 4 O 11.6818 13.7679 17.6812
13 1 H 11.0127 11.1381 17.1211
14 1 H 11.3577 10.6524 0.0665411
15 1 H 10.0957 11.8829 -0.233491
16 1 H 13.1447 12.2593 -0.699521
17 1 H 12.2889 12.8971 0.708136
18 1 H 11.6321 14.4756 -0.368808
19 2 C 10.2921 5.7372 -0.833264
20 2 C 9.72472 7.08793 17.5656
21 4 O 10.7808 8.04822 17.6576
22 1 H 10.8007 5.74533 0.103134
23 1 H 9.47853 5.01746 -0.945808
24 1 H 11.0734 5.58818 17.1582
25 1 H 8.88616 7.36839 -0.511146
26 1 H 9.31253 7.05961 16.5375
27 1 H 10.4306 8.96117 17.6377
28 2 C 17.4527 6.73225 10.8091
29 2 C 17.7881 8.22332 10.4812
30 4 O -0.0505472 8.17257 9.35212
31 1 H -0.343391 6.12645 10.8289
32 1 H 16.7825 6.58044 11.6218
33 1 H 16.9231 6.21103 9.97833
34 1 H -0.488713 8.71661 11.3687
35 1 H 16.9488 8.83817 10.1957
36 1 H 0.796252 8.64355 9.48118
37 2 C 1.64492 16.1681 14.7025
38 2 C 2.95704 16.1801 15.4049
39 4 O 3.8357 16.9339 15.2136
40 1 H 1.47707 17.1041 14.2588
41 1 H 1.56443 15.3322 13.9902
42 1 H 0.871988 16.0764 15.4297
43 1 H 3.07012 15.2754 16.1147
44 1 H 17.4919 15.1305 2.09003
45 1 H 4.00026 3.11356 9.71191
46 2 C 7.56301 13.9781 6.07147
47 2 C 6.46249 12.9679 5.76582
48 4 O 6.95644 11.6405 5.45396
49 1 H 7.12571 14.9106 6.41371
50 1 H 8.23071 13.596 6.8482
51 1 H 8.11417 14.1347 5.15009
52 1 H 5.84179 13.2779 4.94014
53 1 H 5.7873 12.9264 6.62581
54 1 H 7.50567 11.358 6.18909
55 2 C 16.2507 3.97334 13.6124
56 2 C 14.9211 4.66405 13.8511
57 4 O 14.9588 6.08188 13.9464
58 1 H 16.8884 4.03199 14.4958
59 1 H 16.1684 2.9198 13.324
60 1 H 16.8695 4.44841 12.8485
61 1 H 14.4414 4.37906 14.7518
62 1 H 14.2497 4.28705 13.0669
63 1 H 14.053 6.36177 13.8199
64 2 C 8.5232 10.167 9.16598
65 2 C 9.10252 9.42179 10.3374
66 4 O 8.18431 8.31722 10.584
67 1 H 7.65081 10.749 9.44724
68 1 H 9.24255 10.798 8.614
69 1 H 8.09641 9.43114 8.46542
70 1 H 9.18262 10.0868 11.191
71 1 H 10.1031 8.98008 10.246
72 1 H 8.67082 7.54098 10.8584
73 2 C 5.63736 3.39422 5.26572
74 2 C 5.11653 4.26722 6.45924
75 4 O 6.02969 4.29635 7.58184
76 1 H 5.7317 2.34465 5.55182
77 1 H 4.94961 3.48272 4.41056
78 1 H 6.62906 3.69205 4.94017
79 1 H 4.06257 3.92195 6.69551
80 1 H 5.06931 5.29265 6.11442
81 1 H 5.88434 3.48819 8.07978
82 2 C 5.15717 8.70456 12.7589
83 2 C 5.68539 9.91843 13.6406
84 4 O 4.70347 11.0313 13.5901
85 1 H 4.28958 8.24451 13.2716
86 1 H 4.92079 9.03181 11.7355
87 1 H 5.92717 7.87273 12.6188
88 1 H 6.57064 10.4027 13.2108
89 1 H 5.90901 9.56395 14.6364
90 1 H 4.70448 11.3912 14.4775
91 2 C 11.2514 4.41504 14.1523
92 2 C 10.7334 5.88247 14.1871
93 4 O 11.8323 6.69086 14.7121
94 1 H 11.2151 3.98947 15.1311
95 1 H 10.574 3.76613 13.5548
96 1 H 12.1184 4.1788 13.575
97 1 H 9.92716 5.8371 14.9244
98 1 H 10.3523 6.3339 13.3405
99 1 H 11.5432 7.61031 14.9822
100 2 C 5.75059 14.2645 12.1357
101 2 C 6.92369 14.7262 11.2875
102 4 O 7.00372 16.1166 11.1466
103 1 H 4.84904 14.8264 11.7464
104 1 H 5.52014 13.2006 12.1564
105 1 H 5.90998 14.5945 13.1767
106 1 H 6.90298 14.2972 10.2785
107 1 H 7.82967 14.2572 11.7379
108 1 H 6.62541 16.4943 11.958
109 2 C 3.80472 16.0698 5.44511
110 2 C 3.17166 15.1625 4.41026
111 4 O 2.88111 13.9883 5.23099
112 1 H 3.06304 16.2007 6.264
113 1 H 4.58768 15.5011 5.89827
114 1 H 4.05099 17.022 5.02506
115 1 H 3.78238 14.8856 3.53315
116 1 H 2.24257 15.5633 4.04016
117 1 H 2.24864 13.4329 4.77716
118 2 C 2.91983 7.35589 10.0928
119 2 C 3.4083 8.42852 9.15793
120 4 O 2.5974 9.59048 9.30146
121 1 H 1.84429 7.229 9.9241
122 1 H 3.34281 6.39396 9.87258
123 1 H 3.02973 7.60117 11.1479
124 1 H 3.21489 8.1299 8.08954
125 1 H 4.48135 8.75761 9.23211
126 1 H 2.66995 9.84979 10.2435
127 2 C 7.77999 17.7166 16.1647
128 2 C 7.42365 -0.426704 14.7989
129 4 O 6.51433 17.4456 13.969
130 1 H 8.5719 -0.406851 16.5971
131 1 H 6.9476 -0.793462 16.8743
132 1 H 8.06432 16.6745 16.1632
133 1 H 8.29363 -0.329355 14.1329
134 1 H 6.97911 0.557951 14.8523
135 1 H 5.86782 17.0513 14.561
136 2 C 9.98929 11.4943 3.56893
137 2 C 11.1489 11.8406 4.45849
138 4 O 11.8542 12.9377 3.89373
139 1 H 10.3023 11.4532 2.54966
140 1 H 9.49182 10.5409 3.82061
141 1 H 9.22139 12.2674 3.49629
142 1 H 11.8278 10.947 4.41024
143 1 H 10.6751 11.9588 5.50285
144 1 H 12.0236 13.5462 4.61764
145 2 C 5.313 17.4493 0.841793
146 2 C 6.48608 16.4991 1.27623
147 4 O 7.58359 16.9177 0.437083
148 1 H 4.3777 17.2254 1.3977
149 1 H 5.50354 -0.188199 1.16959
150 1 H 5.05554 17.5118 -0.252061
151 1 H 6.2266 15.5096 1.04865
152 1 H 6.71196 16.6167 2.35061
153 1 H 8.20759 16.2142 0.364067
154 2 C 0.388338 1.79575 17.1962
155 2 C 0.607027 1.21178 15.8534
156 4 O -0.430218 1.56643 14.9606
157 1 H -0.602813 1.59452 17.6052
158 1 H 1.08742 1.32132 -0.805994
159 1 H 0.526009 2.87388 17.2565
160 1 H 0.60987 0.11789 15.927
161 1 H 1.60768 1.41354 15.4377
162 1 H -0.242328 2.51236 14.7621
163 2 C 16.8593 9.08725 6.29077
164 2 C -0.456194 9.59952 6.33145
165 4 O 0.420943 8.4839 6.33406
166 1 H 16.7031 8.2918 7.04076
167 1 H 16.069 9.8469 6.34158
168 1 H 16.695 8.63592 5.3177
169 1 H -0.299495 10.2771 7.23979
170 1 H -0.26186 10.1768 5.43971
171 1 H 0.372999 8.15078 7.23947
172 2 C 13.2888 9.39199 2.42694
173 2 C 12.6469 8.16248 2.99453
174 4 O 11.3379 7.79866 2.45672
175 1 H 13.2327 9.51559 1.34183
176 1 H 12.8961 10.2946 2.9004
177 1 H 14.3675 9.42004 2.57407
178 1 H 12.3647 8.32192 4.01125
179 1 H 13.307 7.27142 2.97497
180 1 H 11.3654 8.0222 1.51748
181 2 C 17.3407 2.47546 3.51949
182 2 C -0.519868 3.48474 2.8974
183 4 O -0.543433 4.6526 3.8484
184 1 H 16.2948 2.58079 3.34989
185 1 H 17.4951 1.48584 3.17135
186 1 H 17.5645 2.41566 4.56614
187 1 H -0.83137 3.80052 1.91254
188 1 H 0.500023 3.19499 2.92988
189 1 H 17.3305 4.94213 4.28211
190 2 C 7.47386 -0.527865 8.72167
191 2 C 6.23338 -0.0113178 8.07341
192 4 O 5.88709 1.34763 8.54561
193 1 H 7.66134 17.1535 8.33749
194 1 H 8.32899 0.0761153 8.40187
195 1 H 7.41431 -0.541869 9.81626
196 1 H 5.39619 -0.560712 8.42638
197 1 H 6.3054 -0.0165686 6.98124
198 1 H 6.66 1.79339 8.88053
199 2 C 10.5833 16.1882 15.7047
200 2 C 10.2553 15.8857 14.2482
201 4 O 10.2268 14.4773 14.0844
202 1 H 10.7096 17.2436 15.8403
203 1 H 9.75533 15.8287 16.285
204 1 H 11.4538 15.6213 16.0185
205 1 H 10.9022 16.3206 13.4843
206 1 H 9.24758 16.2263 14.0938
207 1 H 11.0409 14.1755 14.4961
208 2 C 6.93545 8.99239 3.52377
209 2 C 6.19972 9.32837 2.23052
210 4 O 4.79507 9.59676 2.55362
211 1 H 6.34202 8.3025 4.10611
212 1 H 7.94207 8.55506 3.42057
213 1 H 6.90039 9.91713 4.09218
214 1 H 6.13918 8.58955 1.46131
215 1 H 6.63363 10.2598 1.84543
216 1 H 4.45092 8.72878 2.78985
217 2 C 0.482996 8.84439 14.1413
218 2 C -0.86839 8.40851 14.5024
219 4 O 16.9344 9.48215 14.2101
220 1 H 0.535587 8.72811 13.0326
221 1 H 0.570881 9.90873 14.4006
222 1 H 1.32683 8.33321 14.6484
223 1 H 17.7503 8.191 15.5753
224 1 H 17.6047 7.50156 13.8779
225 1 H 16.0372 9.14456 14.1752
226 2 C 14.3997 5.67117 6.7935
227 2 C 14.7565 5.97711 5.32193
228 4 O 16.1251 5.85149 5.15019
229 1 H 14.7793 4.70494 7.03076
230 1 H 14.8984 6.34599 7.48934
231 1 H 13.2819 5.6666 6.92322
232 1 H 14.4188 6.94295 4.96895
233 1 H 14.2546 5.22171 4.71215
234 1 H 16.6036 6.51208 5.66875
235 2 C 0.46206 17.0181 0.762103
236 2 C -0.624095 17.0637 1.78109
237 4 O 17.2287 15.9394 1.68086
238 1 H 1.12388 16.1672 0.864732
239 1 H 0.0677177 16.9476 -0.220788
240 1 H 1.05518 -0.832559 0.764505
241 1 H 17.2733 -0.907802 1.62955
242 1 H -0.231574 17.2488 2.83089
243 1 H 0.690794 4.92499 5.11023
244 2 C 13.0068 17.0843 7.7552
245 2 C 11.9081 17.492 6.86662
246 4 O 11.5757 16.4523 5.96286
247 1 H 13.1815 17.8568 8.51899
248 1 H 12.8884 16.0608 8.22299
249 1 H 13.9492 17.0418 7.18089
250 1 H 12.2407 -0.261993 6.48736
251 1 H 10.948 -0.99373 7.34029
252 1 H 11.0063 16.7761 5.24587
253 2 C 1.69971 5.02308 0.0657188
254 2 C 0.333667 5.58967 -0.53374
255 4 O 0.407285 5.60556 16.759
256 1 H 1.47143 4.92052 1.14657
257 1 H 1.95749 4.02563 -0.226968
258 1 H 2.5986 5.64341 -0.100026
259 1 H 0.239274 6.60129 -0.110602
260 1 H -0.501057 4.93952 -0.206348
261 1 H -0.544393 5.67896 16.4935
262 2 C 17.4862 12.6542 4.07137
263 2 C -0.240555 11.9894 3.12579
264 4 O 1.01878 12.1043 3.72218
265 1 H 17.5588 12.2256 5.06455
266 1 H 17.7573 13.7428 3.99815
267 1 H 16.4445 12.5056 3.77036
268 1 H -0.234877 12.486 2.11912
269 1 H -0.563397 10.9239 3.03879
270 1 H 1.78044 11.8137 3.22133
271 2 C 14.4131 0.637963 17.561
272 2 C 14.9105 1.63258 16.589
273 4 O 14.9008 2.85275 17.3281
274 1 H 13.423 0.910012 -0.789321
275 1 H 14.2633 -0.348997 17.1696
276 1 H 15.1136 0.552891 -0.243669
277 1 H 14.194 1.6278 15.7844
278 1 H 15.8521 1.31682 16.2146
279 1 H 15.2639 3.553 16.7988
280 2 C 12.4449 0.730403 10.3178
281 2 C 10.9663 0.48615 10.5728
282 4 O 10.275 1.75983 10.7449
283 1 H 12.993 1.36401 11.0107
284 1 H 13.011 -0.199893 10.3131
285 1 H 12.622 1.21356 9.33846
286 1 H 10.7876 -0.130432 11.4724
287 1 H 10.5764 -0.0173149 9.70234
288 1 H 9.34305 1.6612 10.5686
289 2 C 6.82337 5.34897 11.1611
290 2 C 7.88951 4.32367 10.7889
291 4 O 7.31564 3.08876 10.2509
292 1 H 6.00381 4.92163 11.7912
293 1 H 7.24472 6.16521 11.7261
294 1 H 6.40901 5.78386 10.2635
295 1 H 8.43481 4.1231 11.7
296 1 H 8.61764 4.74087 10.1111
297 1 H 6.74836 2.74877 10.9728
298 2 C 13.2888 8.97475 6.39496
299 2 C 13.2746 10.0505 7.46613
300 4 O 12.1203 10.1221 8.28682
301 1 H 14.2186 9.03117 5.81963
302 1 H 13.2013 8.0147 6.86608
303 1 H 12.438 9.04191 5.71939
304 1 H 13.5269 11.0229 7.06053
305 1 H 14.0762 9.78318 8.13044
306 1 H 11.4499 9.50535 7.94263
307 2 C 11.4307 10.6625 14.1441
308 2 C 12.8547 10.4755 14.7067
309 4 O 13.7061 9.71543 13.8869
310 1 H 11.2127 9.93293 13.3104
311 1 H 10.6594 10.5875 14.9324
312 1 H 11.3439 11.6341 13.6318
313 1 H 12.8746 10.0007 15.7073
314 1 H 13.2678 11.4682 14.9346
315 1 H 13.8863 10.1171 13.0414
316 2 C 4.89728 12.1784 9.23829
317 2 C 3.7104 12.6546 8.42001
318 4 O 3.74084 14.0516 8.22868
319 1 H 5.77596 12.781 9.03873
320 1 H 4.71266 12.2151 10.3087
321 1 H 5.13422 11.1299 9.0083
322 1 H 2.76952 12.3827 8.90918
323 1 H 3.75919 12.1344 7.43763
324 1 H 3.87627 14.2492 7.31614
325 2 C 0.802446 1.20985 9.82378
326 2 C -0.0242612 1.23087 11.0859
327 4 O 0.786792 0.68017 12.1471
328 1 H 0.983498 0.194584 9.48817
329 1 H 0.226373 1.70348 9.04729
330 1 H 1.74059 1.83658 9.76102
331 1 H 17.8561 0.58643 10.8455
332 1 H -0.39953 2.25372 11.2905
333 1 H 0.254817 0.638549 12.934
334 2 C 1.67511 3.64954 12.4261
335 2 C 1.88907 4.2984 13.7476
336 4 O 0.767056 4.03288 14.615
337 1 H 2.676 3.44725 12.0011
338 1 H 1.21319 2.73975 12.7297
339 1 H 1.11378 4.22231 11.7094
340 1 H 1.871 5.35161 13.6731
341 1 H 2.78377 3.93257 14.2361
342 1 H 1.00981 4.46246 15.4418
343 2 C 6.86778 13.5214 15.5026
344 2 C 6.59355 14.3233 16.7453
345 4 O 6.24348 13.3552 17.7985
346 1 H 7.11816 14.2779 14.652
347 1 H 7.66722 12.8484 15.4697
348 1 H 6.02077 12.898 15.2666
349 1 H 5.76808 15.0278 16.7802
350 1 H 7.48606 14.9573 17.0865
351 1 H 6.95837 12.7541 -0.675576
352 2 C 3.86754 -0.166003 11.5829
353 2 C 4.97848 0.715596 12.097
354 4 O 4.98828 1.80268 11.2762
355 1 H 4.15596 -0.698401 10.6771
356 1 H 3.65043 17.7516 12.3502
357 1 H 2.98204 0.41611 11.3762
358 1 H 5.90668 0.163735 11.9976
359 1 H 4.89127 1.06135 13.1367
360 1 H 5.11057 1.53464 10.3383
361 2 C 10.3952 14.9099 9.41551
362 2 C 10.6779 15.8521 10.5966
363 4 O 11.6268 15.4169 11.5531
364 1 H 9.83515 14.0294 9.67452
365 1 H 9.78823 15.4274 8.70049
366 1 H 11.3726 14.6041 9.05085
367 1 H 9.7234 16.1075 11.0989
368 1 H 11.0952 16.7813 10.1629
369 1 H 11.1925 14.7605 12.1357
370 2 C 12.834 7.43739 10.4284
371 2 C 12.1228 6.0785 10.3884
372 4 O 10.7183 6.1973 10.1473
373 1 H 12.5266 8.10106 11.2214
374 1 H 13.9044 7.23593 10.5438
375 1 H 12.7223 8.06014 9.56326
376 1 H 12.1368 5.57125 11.3739
377 1 H 12.604 5.44335 9.59025
378 1 H 10.6383 6.5769 9.26252
379 2 C 1.45745 8.42795 2.33708
380 2 C 2.37521 7.88096 3.33215
381 4 O 3.59669 7.38831 2.72762
382 1 H 1.15828 7.6855 1.59028
383 1 H 0.593782 8.74202 2.89799
384 1 H 1.85046 9.32986 1.88198
385 1 H 1.94631 7.03684 3.92714
386 1 H 2.74213 8.6418 4.05283
387 1 H 3.45811 6.78303 1.98564
388 2 C 12.3609 12.2333 11.2625
389 2 C 13.2855 12.4868 10.0589
390 4 O 13.3003 13.8218 9.5526
391 1 H 11.3145 12.3531 10.9427
392 1 H 12.4433 11.205 11.6116
393 1 H 12.5478 12.8205 12.1833
394 1 H 12.952 11.8815 9.22135
395 1 H 14.2838 12.1675 10.3139
396 1 H 13.0174 14.4095 10.2257
397 2 C 1.05902 12.3921 12.353
398 2 C 1.147 11.023 11.7801
399 4 O 2.58579 10.8404 11.4606
400 1 H 1.14334 13.2113 11.5931
401 1 H 0.150112 12.5336 12.9216
402 1 H 1.85664 12.4891 13.1281
403 1 H 0.647793 10.7704 10.8514
404 1 H 0.867284 10.3724 12.5321
405 1 H 3.08448 11.2765 12.1439
406 2 C 2.4041 10.07 16.4323
407 2 C 3.01507 11.365 17.0287
408 4 O 4.38508 11.5994 16.5949
409 1 H 2.64328 9.88736 15.3684
410 1 H 2.88303 9.22849 16.9845
411 1 H 1.35394 10.0934 16.6379
412 1 H 3.1255 11.4319 -0.611912
413 1 H 2.39966 12.1642 16.6679
414 1 H 4.67828 12.4387 17.0089
415 2 C 9.93778 6.25977 5.65203
416 2 C 9.46215 7.44979 6.42346
417 4 O 10.1108 7.47692 7.75798
418 1 H 9.56103 5.34947 6.11079
419 1 H 9.79841 6.31849 4.57508
420 1 H 10.9864 6.26407 5.9123
421 1 H 8.36947 7.32936 6.52093
422 1 H 9.64041 8.37231 5.81654
423 1 H 9.5573 8.07271 8.30014
424 2 C 2.87493 13.6698 1.03053
425 2 C 3.83183 12.6714 1.57422
426 4 O 3.15745 11.5267 2.06959
427 1 H 2.39488 13.3617 0.100708
428 1 H 2.1915 13.8775 1.81403
429 1 H 3.3749 14.5974 0.846906
430 1 H 4.46509 13.1191 2.39339
431 1 H 4.49139 12.3619 0.79443
432 1 H 3.77768 10.7756 2.18856
433 2 C 1.14637 4.53078 8.36236
434 2 C 0.314938 4.72073 7.22009
435 4 O 1.10703 4.87572 6.0214
436 1 H 1.49504 5.48142 8.85145
437 1 H 0.459303 4.1679 9.12635
438 1 H 2.0105 3.87586 8.24732
439 1 H -0.261717 5.71573 7.31378
440 1 H -0.345842 3.84854 6.94736
441 1 H 1.72536 5.55373 6.12905
442 2 C 14.335 6.7046 -0.903424
443 2 C 15.8805 6.76173 17.608
444 4 O 16.2089 6.01561 16.4107
445 1 H 14.0459 7.35024 -0.0535909
446 1 H 13.8228 7.07893 16.9299
447 1 H 14.0235 5.74304 -0.542406
448 1 H 16.4395 6.30764 -0.247541
449 1 H 16.3041 7.73018 17.4272
450 1 H 15.6913 6.38587 15.7133
ITEM: TIMESTEP
7200
ITEM: NUMBER OF ATOMS
450
ITEM: BOX BOUNDS pp pp pp
-8.8391995003812696e-01 1.7808919950037961e+01
-8.8391995003812696e-01 1.7808919950037961e+01
-8.8391995003812696e-01 1.7808919950037961e+01
ITEM: ATOMS id type element x y z
1 2 C 6.48211 4.362 16.3834
2 2 C 6.71797 2.89543 16.784
3 4 O 8.07196 2.70511 17.231
4 1 H 6.65873 5.03521 17.1951
5 1 H 7.11309 4.72115 15.5821
6 1 H 5.45229 4.48766 16.0161
7 1 H 6.50078 2.19258 15.9491
8 1 H 6.09593 2.67032 17.6649
9 1 H 8.10955 1.90513 17.7545
10 2 C 11.0723 11.6025 -0.375459
11 2 C 12.0963 12.672 -0.0683522
12 4 O 11.7608 13.8044 -0.822638
13 1 H 11.1205 11.3569 17.2731
14 1 H 11.117 10.782 0.344253
15 1 H 10.0982 12.0527 -0.197853
16 1 H 13.0681 12.3073 -0.405655
17 1 H 12.1651 12.9986 0.94146
18 1 H 12.5417 14.3242 17.6456
19 2 C 10.3816 5.9257 17.6556
20 2 C 9.71855 7.32637 17.6233
21 4 O 10.8019 8.28618 17.3711
22 1 H 10.9284 5.62347 -0.135587
23 1 H 9.61221 5.20699 17.2916
24 1 H 11.1522 6.05824 16.8856
25 1 H 9.17449 7.54054 -0.123074
26 1 H 8.99076 7.24244 16.819
27 1 H 10.5732 9.16877 17.7236
28 2 C 17.2604 6.83066 10.7865
29 2 C -0.854332 8.12876 10.4138
30 4 O -0.135731 8.27632 9.16911
31 1 H -0.705403 6.0287 10.9061
32 1 H 16.5684 6.93902 11.622
33 1 H 16.5595 6.42535 10.0593
34 1 H -0.195508 8.4034 11.2368
35 1 H 17.0712 8.90609 10.3636
36 1 H 0.768421 8.55451 9.33567
37 2 C 1.743 16.3612 14.8381
38 2 C 3.10969 15.8506 15.4501
39 4 O 4.11147 16.5098 15.3841
40 1 H 1.81328 17.3241 14.3652
41 1 H 1.47741 15.5961 14.1159
42 1 H 0.845344 16.4813 15.5154
43 1 H 3.08859 14.9133 15.9248
44 1 H 17.6972 15.2243 1.33096
45 1 H 4.08604 3.25431 9.59998
46 2 C 7.77854 13.9787 5.89175
47 2 C 6.68894 12.8907 5.79173
48 4 O 7.07472 11.6624 5.16677
49 1 H 7.27307 14.8702 6.25512
50 1 H 8.60525 13.6812 6.55502
51 1 H 8.17907 14.2448 4.91913
52 1 H 5.85627 13.2334 5.16853
53 1 H 6.28694 12.7204 6.79359
54 1 H 7.6861 11.1669 5.70617
55 2 C 16.1524 4.15146 13.6738
56 2 C 14.759 4.65238 13.5557
57 4 O 14.8845 6.17268 13.8755
58 1 H 16.5175 4.31278 14.6905
59 1 H 16.1175 3.01914 13.4749
60 1 H 16.9296 4.54368 13.0798
61 1 H 14.0575 4.23284 14.33
62 1 H 14.5239 4.54498 12.5013
63 1 H 13.974 6.49903 13.9552
64 2 C 8.2447 10.2161 8.9485
65 2 C 8.90121 9.62039 10.1713
66 4 O 8.42419 8.29724 10.4357
67 1 H 7.3104 10.7769 9.09709
68 1 H 8.94534 10.9265 8.58149
69 1 H 8.13798 9.45689 8.19221
70 1 H 8.75916 10.3265 11.0048
71 1 H 9.96311 9.51697 10.013
72 1 H 9.1281 7.75015 10.7673
73 2 C 5.49454 3.47646 5.45801
74 2 C 5.30356 4.43127 6.60689
75 4 O 6.18091 4.13543 7.68152
76 1 H 5.39193 2.43573 5.78327
77 1 H 4.7801 3.7156 4.66569
78 1 H 6.44592 3.65433 4.95296
79 1 H 4.26814 4.38781 6.84055
80 1 H 5.4784 5.44742 6.25582
81 1 H 6.09804 3.16506 7.767
82 2 C 5.19726 9.08392 12.5789
83 2 C 5.76113 10.1067 13.4308
84 4 O 4.82085 10.9938 13.8852
85 1 H 4.45038 8.64434 13.1709
86 1 H 4.77012 9.38594 11.6524
87 1 H 5.94556 8.28089 12.4016
88 1 H 6.5405 10.7216 12.9688
89 1 H 6.26363 9.54082 14.2388
90 1 H 4.8721 11.0498 14.8734
91 2 C 11.1644 4.5302 14.5242
92 2 C 10.8019 5.93807 14.3235
93 4 O 12.0419 6.81485 14.2646
94 1 H 11.3169 4.27878 15.6011
95 1 H 10.4417 3.82991 14.1808
96 1 H 12.0654 4.22621 13.9402
97 1 H 10.1205 6.30495 15.0859
98 1 H 10.2315 6.12966 13.3222
99 1 H 11.7103 7.67833 14.4886
100 2 C 5.87811 14.011 12.2719
101 2 C 6.93265 14.4775 11.3002
102 4 O 6.93601 15.8809 11.209
103 1 H 4.92238 13.8075 11.8624
104 1 H 6.22045 13.1017 12.7883
105 1 H 5.63735 14.8009 12.9878
106 1 H 6.75106 14.0631 10.2939
107 1 H 7.8746 14.0872 11.7241
108 1 H 6.78697 16.2191 12.0999
109 2 C 3.83283 15.976 5.58646
110 2 C 3.37813 14.9539 4.61194
111 4 O 3.12895 13.6878 5.16171
112 1 H 3.07437 16.2773 6.28591
113 1 H 4.72353 15.5701 6.06109
114 1 H 4.06533 16.8435 4.89259
115 1 H 4.09001 14.8577 3.79632
116 1 H 2.43207 15.2664 4.11212
117 1 H 2.26926 13.3804 4.81031
118 2 C 3.27335 7.14059 10.0009
119 2 C 3.60133 8.29441 9.10378
120 4 O 2.57837 9.3043 9.00618
121 1 H 2.33363 6.64506 9.78568
122 1 H 4.07415 6.38019 9.91766
123 1 H 3.2446 7.49024 11.0231
124 1 H 3.71588 7.99259 8.08302
125 1 H 4.49993 8.76285 9.36845
126 1 H 2.43581 9.66821 9.88288
127 2 C 7.53372 -0.76956 15.9338
128 2 C 7.31513 -0.400285 14.5019
129 4 O 6.564 17.248 13.8906
130 1 H 8.13961 -0.101367 16.5079
131 1 H 6.5493 17.7775 16.3786
132 1 H 8.0581 16.9652 15.9401
133 1 H 8.22623 -0.301985 13.9196
134 1 H 6.76465 0.509473 14.333
135 1 H 5.63884 17.4478 13.9585
136 2 C 10.1379 11.6228 3.85855
137 2 C 11.2944 12.1527 4.72639
138 4 O 11.9867 13.1076 3.9793
139 1 H 10.5365 11.3197 2.87839
140 1 H 9.72017 10.719 4.23845
141 1 H 9.35036 12.3409 3.63283
142 1 H 11.9365 11.3429 5.00349
143 1 H 10.8824 12.5586 5.59291
144 1 H 12.3566 13.7141 4.63232
145 2 C 5.27321 17.5097 0.758993
146 2 C 6.24623 16.4103 0.823672
147 4 O 7.5371 16.8593 0.367698
148 1 H 4.36245 17.2872 1.33081
149 1 H 5.79124 -0.317091 1.1388
150 1 H 5.07 17.9188 -0.170752
151 1 H 5.86121 15.4701 0.238934
152 1 H 6.34202 16.0283 1.86023
153 1 H 8.16042 16.2413 0.705958
154 2 C 0.631196 1.74644 17.1885
155 2 C 0.324523 0.88307 15.9319
156 4 O -0.407854 1.58928 14.9403
157 1 H -0.279107 1.87199 -0.901922
158 1 H 1.42478 1.38231 17.8217
159 1 H 0.954812 2.77435 16.9502
160 1 H -0.179176 -0.0253353 16.2115
161 1 H 1.25679 0.553625 15.4832
162 1 H -0.154006 2.51499 14.9699
163 2 C 16.8349 9.08498 6.49237
164 2 C -0.339119 9.27065 6.0943
165 4 O 0.501408 8.16061 6.26285
166 1 H 16.7483 8.65752 7.50307
167 1 H 16.3817 10.0622 6.6531
168 1 H 16.1803 8.47704 5.8715
169 1 H -0.0159606 10.0003 6.75966
170 1 H -0.159085 9.5913 5.07842
171 1 H 0.500881 8.03301 7.22757
172 2 C 13.3401 9.5745 2.4617
173 2 C 12.6503 8.26729 2.93392
174 4 O 11.3018 8.22125 2.43172
175 1 H 13.8576 9.5955 1.52135
176 1 H 12.6497 10.4261 2.46427
177 1 H 14.0807 9.80584 3.2468
178 1 H 12.4994 8.29852 4.02879
179 1 H 13.2049 7.34113 2.79822
180 1 H 11.3164 7.91629 1.53882
181 2 C 17.4404 2.36165 3.53934
182 2 C -0.601694 3.635 2.84623
183 4 O -0.422859 4.64746 3.80311
184 1 H 16.5626 2.63685 4.2182
185 1 H 17.026 1.55515 2.85082
186 1 H -0.634773 1.91193 4.32425
187 1 H 17.462 4.08011 2.04413
188 1 H 0.405812 3.42019 2.35943
189 1 H 17.557 4.90273 4.41149
190 2 C 7.50984 -0.362797 8.67741
191 2 C 6.23219 0.180918 7.99389
192 4 O 5.89157 1.42506 8.56573
193 1 H 7.94072 17.5873 8.01053
194 1 H 8.19914 0.481648 8.74063
195 1 H 7.30428 -0.850276 9.62122
196 1 H 5.35312 -0.525384 8.08584
197 1 H 6.39571 0.317659 6.90557
198 1 H 6.64028 1.70809 9.14365
199 2 C 10.7284 16.2329 15.9286
200 2 C 10.3238 15.9278 14.4466
201 4 O 10.3046 14.4823 14.1209
202 1 H 10.4722 17.2945 16.1568
203 1 H 10.2351 15.4963 16.5865
204 1 H 11.7974 16.0088 16.0381
205 1 H 10.9623 16.4015 13.6835
206 1 H 9.30854 16.3235 14.2924
207 1 H 10.4841 13.9971 14.9449
208 2 C 7.02541 8.85371 3.16219
209 2 C 6.30025 9.5678 2.04534
210 4 O 4.95252 9.66242 2.23476
211 1 H 6.6629 7.82894 3.32885
212 1 H 8.04616 8.75386 2.8023
213 1 H 6.97836 9.39041 4.1194
214 1 H 6.46216 9.10771 1.02897
215 1 H 6.79622 10.5377 1.91652
216 1 H 4.70428 8.85846 2.71952
217 2 C 0.4308 8.79721 14.2275
218 2 C 17.6808 8.3917 14.5977
219 4 O 16.7468 9.33424 14.1618
220 1 H 0.806913 8.53909 13.2635
221 1 H 0.585696 9.88383 14.3201
222 1 H 1.14607 8.34719 14.9605
223 1 H 17.6516 8.19553 15.6607
224 1 H 17.5237 7.37408 14.235
225 1 H 15.8339 9.05543 14.0894
226 2 C 14.2719 5.08871 6.45145
227 2 C 14.7647 5.80235 5.22221
228 4 O 16.2481 5.82085 5.01978
229 1 H 14.6091 4.02669 6.52532
230 1 H 14.6214 5.67308 7.29914
231 1 H 13.2067 5.07972 6.44577
232 1 H 14.3583 6.80246 5.3241
233 1 H 14.231 5.40703 4.36684
234 1 H 16.6106 6.69005 4.81805
235 2 C 0.647523 17.0811 0.782855
236 2 C -0.274452 16.8656 1.99604
237 4 O 17.2643 15.9713 1.77523
238 1 H 1.00308 16.2334 0.123421
239 1 H 0.0694907 17.6707 0.0397474
240 1 H 1.46384 17.8485 1.02605
241 1 H -0.719008 -0.9924 2.5117
242 1 H 0.285551 16.4207 2.80635
243 1 H 0.635718 5.03886 5.15066
244 2 C 13.0587 17.2048 7.67654
245 2 C 11.7586 17.6428 7.00782
246 4 O 11.7023 16.6671 5.97763
247 1 H 13.3391 -1.01935 8.71131
248 1 H 12.7946 16.2361 7.92309
249 1 H 14.0984 17.0414 7.22904
250 1 H 11.8709 -0.0103846 6.4856
251 1 H 10.8052 17.7227 7.52019
252 1 H 10.9892 16.9088 5.37584
253 2 C 1.63522 5.11295 0.118954
254 2 C 0.391305 5.61563 -0.395395
255 4 O 0.452293 6.08342 16.9483
256 1 H 1.48156 4.57267 1.04573
257 1 H 2.16556 4.3751 -0.480204
258 1 H 2.33297 5.94016 0.231626
259 1 H -0.0156681 6.40182 0.284673
260 1 H -0.417987 4.88302 -0.45931
261 1 H -0.469076 6.27515 16.777
262 2 C 17.3339 12.6723 4.16231
263 2 C -0.1804 12.078 3.35535
264 4 O 1.11021 12.6168 3.76269
265 1 H 17.5683 12.6054 5.19726
266 1 H 17.0391 13.6441 3.80451
267 1 H 16.5034 11.9913 3.95847
268 1 H -0.365921 12.3764 2.3437
269 1 H -0.289256 10.9988 3.50026
270 1 H 1.80564 12.111 3.3393
271 2 C 14.4773 0.998348 17.7099
272 2 C 15.0814 1.96446 16.7694
273 4 O 14.869 3.27992 17.1778
274 1 H 13.3968 1.12511 17.8461
275 1 H 14.5974 -0.0364157 17.3722
276 1 H 14.8559 0.996858 0.0444414
277 1 H 14.5412 1.81117 15.7914
278 1 H 16.1806 1.75114 16.5797
279 1 H 15.6192 3.86454 17.073
280 2 C 12.2219 0.91192 10.3171
281 2 C 10.8039 0.589756 10.6108
282 4 O 10.1888 1.84139 10.6202
283 1 H 12.5421 1.81672 10.8109
284 1 H 12.9511 0.132479 10.5057
285 1 H 12.3333 1.10867 9.24715
286 1 H 10.7509 0.211751 11.625
287 1 H 10.3007 -0.148817 9.9349
288 1 H 9.24968 1.77686 10.7109
289 2 C 7.08833 5.49677 11.0948
290 2 C 7.95213 4.22738 11.06
291 4 O 7.30608 3.14728 10.389
292 1 H 6.17163 5.32764 11.6524
293 1 H 7.65903 6.29514 11.5337
294 1 H 6.7884 5.83189 10.1124
295 1 H 8.22079 4.03027 12.1203
296 1 H 8.85761 4.48003 10.5243
297 1 H 6.53281 2.81107 10.85
298 2 C 13.3697 9.00919 6.61559
299 2 C 13.2427 9.86771 7.85083
300 4 O 11.8956 10.0362 8.35494
301 1 H 14.3514 9.08201 6.21527
302 1 H 13.0892 7.95884 6.83971
303 1 H 12.6069 9.34936 5.89269
304 1 H 13.5445 10.8806 7.51449
305 1 H 13.9161 9.56493 8.66905
306 1 H 11.4554 9.14989 8.37306
307 2 C 11.4121 10.5543 14.3449
308 2 C 12.7855 10.2393 14.9213
309 4 O 13.6839 9.96443 13.7662
310 1 H 11.0925 9.67633 13.7981
311 1 H 10.7124 10.711 15.1656
312 1 H 11.4535 11.4449 13.7505
313 1 H 12.6692 9.3445 15.5307
314 1 H 13.1516 11.0697 15.5256
315 1 H 13.8607 10.7862 13.3275
316 2 C 5.01724 12.1396 9.05288
317 2 C 3.69493 12.393 8.34286
318 4 O 3.39767 13.7675 8.11963
319 1 H 5.76495 12.809 8.62793
320 1 H 5.0017 12.3272 10.1168
321 1 H 5.3234 11.1067 8.93452
322 1 H 2.9009 11.8948 8.89563
323 1 H 3.8562 11.8916 7.41799
324 1 H 2.68078 13.8122 7.51959
325 2 C 0.946991 0.824713 9.84602
326 2 C -0.126057 0.924504 10.9286
327 4 O 0.411334 0.593287 12.1705
328 1 H 1.30835 -0.201555 9.73105
329 1 H 0.729982 1.04839 8.78151
330 1 H 1.75835 1.43566 10.1716
331 1 H 17.7298 0.237894 10.6728
332 1 H -0.523691 1.92959 10.9316
333 1 H -0.314006 0.650617 12.8074
334 2 C 1.67335 3.86709 12.5272
335 2 C 1.95201 3.96419 14.0469
336 4 O 0.682976 4.2123 14.654
337 1 H 2.52349 4.13682 11.924
338 1 H 1.45946 2.77249 12.3917
339 1 H 0.82263 4.44375 12.222
340 1 H 2.60445 4.78791 14.4607
341 1 H 2.34935 3.04327 14.5259
342 1 H 0.682209 4.78927 15.4379
343 2 C 6.71189 13.5645 15.4232
344 2 C 6.05316 14.1109 16.6432
345 4 O 6.29971 13.3319 -0.883475
346 1 H 7.22827 14.3277 14.7939
347 1 H 7.22085 12.5988 15.569
348 1 H 5.92307 13.1523 14.813
349 1 H 4.96564 14.0958 16.657
350 1 H 6.36857 15.1175 16.8865
351 1 H 7.18447 12.9425 17.8008
352 2 C 3.79935 -0.237814 12.1904
353 2 C 4.82598 0.899398 12.0936
354 4 O 4.71471 1.87433 10.9667
355 1 H 3.79186 -0.851672 11.3054
356 1 H 4.00393 -0.875894 13.0132
357 1 H 2.80882 0.182106 12.3557
358 1 H 5.79888 0.444685 11.9685
359 1 H 4.79314 1.54404 12.9728
360 1 H 5.00703 1.49054 10.1409
361 2 C 10.1673 14.6721 9.35022
362 2 C 10.6859 15.8021 10.2591
363 4 O 11.2991 15.1907 11.3634
364 1 H 9.80846 13.8917 10.0579
365 1 H 9.359 14.9982 8.65685
366 1 H 11.0179 14.2481 8.81616
367 1 H 9.89551 16.4924 10.5343
368 1 H 11.4782 16.329 9.7632
369 1 H 10.6887 14.6161 11.8278
370 2 C 12.9615 7.38704 10.6183
371 2 C 12.345 6.13086 10.2108
372 4 O 10.9037 6.2359 10.452
373 1 H 12.6154 7.73929 11.6198
374 1 H 14.0762 7.40508 10.7058
375 1 H 12.7287 8.17155 9.90141
376 1 H 12.6058 5.29022 10.8292
377 1 H 12.5376 5.91517 9.19874
378 1 H 10.4645 5.88067 9.65521
379 2 C 1.16714 8.18245 2.34249
380 2 C 2.15421 7.72595 3.4669
381 4 O 3.41001 7.28447 2.98453
382 1 H 1.49791 7.71553 1.41695
383 1 H 0.0982288 7.98644 2.52348
384 1 H 1.20024 9.27919 2.29342
385 1 H 1.76737 6.85952 3.97376
386 1 H 2.3905 8.47788 4.18686
387 1 H 3.39554 6.37459 2.67423
388 2 C 12.329 12.1288 11.0487
389 2 C 13.4604 12.4853 10.0834
390 4 O 13.5483 13.8111 9.75023
391 1 H 11.3633 12.392 10.6491
392 1 H 12.3195 11.0266 11.16
393 1 H 12.4449 12.5749 12.0146
394 1 H 13.3555 11.923 9.16584
395 1 H 14.3971 12.1155 10.5781
396 1 H 13.0382 14.3962 10.3791
397 2 C 1.09697 12.3183 12.5872
398 2 C 1.51756 11.3999 11.459
399 4 O 2.64225 10.5992 11.7321
400 1 H 1.87312 13.0665 12.7402
401 1 H 0.225366 12.893 12.2628
402 1 H 0.808483 11.8144 13.4752
403 1 H 1.77575 11.9257 10.5385
404 1 H 0.644234 10.7353 11.2447
405 1 H 2.91973 10.7935 12.645
406 2 C 2.5348 10.2645 16.4601
407 2 C 3.18523 11.3178 17.2648
408 4 O 4.48069 11.3471 16.7073
409 1 H 2.45605 10.4865 15.405
410 1 H 3.23627 9.432 16.5953
411 1 H 1.53972 9.95437 16.7974
412 1 H 3.33176 11.2995 -0.340919
413 1 H 2.61315 12.258 17.057
414 1 H 4.9142 12.098 17.1164
415 2 C 9.90613 6.15489 5.49794
416 2 C 9.41343 7.37084 6.3942
417 4 O 9.95534 7.23004 7.67628
418 1 H 9.80919 5.26256 6.09984
419 1 H 9.33668 6.09396 4.54535
420 1 H 10.9539 6.28921 5.16142
421 1 H 8.33502 7.26281 6.37264
422 1 H 9.5978 8.31179 5.9386
423 1 H 9.47725 7.67447 8.38673
424 2 C 3.08824 13.6995 1.01075
425 2 C 3.81049 12.5542 1.71114
426 4 O 2.81451 11.5159 2.05691
427 1 H 2.82278 13.3838 0.0252105
428 1 H 2.23392 14.1032 1.63832
429 1 H 3.7969 14.5865 1.11958
430 1 H 4.13042 12.9065 2.64807
431 1 H 4.61437 12.0818 1.11693
432 1 H 3.28056 10.6956 2.20741
433 2 C 1.16764 4.36301 8.4036
434 2 C 0.31616 4.55759 7.11094
435 4 O 1.05774 5.25215 6.01308
436 1 H 1.85273 5.14608 8.70844
437 1 H 0.536693 4.1553 9.27603
438 1 H 1.91776 3.57959 8.31356
439 1 H -0.536037 5.12352 7.25069
440 1 H 0.167073 3.64405 6.60462
441 1 H 1.17639 6.21127 6.27641
442 2 C 14.1201 6.72691 17.752
443 2 C 15.5843 6.90229 17.7159
444 4 O 16.2628 6.10339 16.7626
445 1 H 13.7056 6.82786 0.0523116
446 1 H 13.6569 7.36671 16.9679
447 1 H 13.8428 5.72052 17.4658
448 1 H 15.9979 6.52319 -0.0633175
449 1 H 16.012 7.92942 17.6567
450 1 H 15.9998 6.27767 15.8055
ITEM: TIMESTEP
7300
ITEM: NUMBER OF ATOMS
450
ITEM: BOX BOUNDS pp pp pp
-8.5506899585463181e-01 1.7780068995854464e+01
-8.5506899585463181e-01 1.7780068995854464e+01
-8.5506899585463181e-01 1.7780068995854464e+01
ITEM: ATOMS id type element x y z
1 2 C 6.59046 4.43291 15.9315
2 2 C 6.3293 3.02141 16.3697
3 4 O 7.64376 2.62098 16.902
4 1 H 6.79512 5.1209 16.7582
5 1 H 7.41714 4.46364 15.2131
6 1 H 5.75651 4.80827 15.3169
7 1 H 6.00223 2.40975 15.5301
8 1 H 5.57943 2.98926 17.1537
9 1 H 7.47661 1.86157 17.4821
10 2 C 10.9887 11.6064 -0.0129735
11 2 C 12.0126 12.7039 0.237831
12 4 O 11.8987 13.8257 -0.709181
13 1 H 11.0241 11.3918 17.5481
14 1 H 11.2782 10.7756 0.644259
15 1 H 10.0116 11.8875 0.341174
16 1 H 12.9633 12.1942 0.141479
17 1 H 11.9354 13.1776 1.24363
18 1 H 12.6966 14.3653 17.8981
19 2 C 10.4757 6.18739 17.6558
20 2 C 9.83854 7.57107 17.5936
21 4 O 10.7787 8.55492 17.3277
22 1 H 11.0722 6.15331 -0.060672
23 1 H 9.76956 5.39833 17.7619
24 1 H 11.0605 6.02945 16.7451
25 1 H 9.42189 7.68901 -0.0545671
26 1 H 9.01347 7.49817 16.8901
27 1 H 10.2922 9.32558 17.0461
28 2 C 17.1669 6.96852 10.5461
29 2 C -0.728718 8.25339 10.3374
30 4 O -0.0507061 8.09881 9.09982
31 1 H -0.836216 6.0944 10.6642
32 1 H 16.6278 6.94379 11.5254
33 1 H 16.3841 6.79039 9.81904
34 1 H -0.0103612 8.38392 11.1307
35 1 H 17.2612 9.15507 10.2726
36 1 H 0.745118 8.66368 9.00515
37 2 C 2.0226 16.4479 14.9443
38 2 C 3.11142 15.6513 15.3789
39 4 O 4.29106 16.0523 15.4903
40 1 H 2.35995 17.261 14.2605
41 1 H 1.39515 15.7336 14.3885
42 1 H 1.36976 16.8937 15.6927
43 1 H 2.90594 14.5792 15.5977
44 1 H 17.4133 15.5009 1.08376
45 1 H 4.02258 3.29043 9.16017
46 2 C 7.907 13.8546 5.68671
47 2 C 6.77228 12.8613 5.68545
48 4 O 7.24415 11.7524 4.96033
49 1 H 7.61047 14.8089 6.15622
50 1 H 8.79739 13.483 6.16394
51 1 H 8.16111 14.1025 4.64986
52 1 H 5.87392 13.1994 5.17535
53 1 H 6.53635 12.5792 6.70681
54 1 H 8.13307 11.535 5.2243
55 2 C 16.1718 4.2779 13.6897
56 2 C 14.7724 4.95776 13.4144
57 4 O 14.801 6.13058 14.0356
58 1 H 16.4309 4.48482 14.7318
59 1 H 16.1887 3.22539 13.585
60 1 H 17.0042 4.72231 13.1377
61 1 H 13.9521 4.35961 13.7931
62 1 H 14.6996 5.04743 12.3389
63 1 H 13.867 6.3596 14.1902
64 2 C 8.04933 10.2667 8.79461
65 2 C 8.91253 9.77411 10.0001
66 4 O 8.93748 8.37211 10.0534
67 1 H 7.14501 9.63457 8.71758
68 1 H 7.67713 11.2997 8.9295
69 1 H 8.67558 10.1797 7.89584
70 1 H 8.45434 10.2606 10.8753
71 1 H 9.93859 10.1417 9.89406
72 1 H 9.79763 8.03304 10.3835
73 2 C 5.30062 3.60376 5.59811
74 2 C 5.40341 4.60307 6.73462
75 4 O 6.31194 4.24689 7.69162
76 1 H 4.81272 2.69531 5.94284
77 1 H 4.82321 3.95343 4.69834
78 1 H 6.33082 3.34244 5.30909
79 1 H 4.34909 4.72017 7.11898
80 1 H 5.6933 5.58367 6.33615
81 1 H 6.12651 3.33519 7.9458
82 2 C 5.46805 9.28063 12.3598
83 2 C 5.89938 10.2993 13.409
84 4 O 4.74313 10.9731 14.0174
85 1 H 4.84112 8.42794 12.7799
86 1 H 4.85462 9.69061 11.5461
87 1 H 6.31763 8.81037 11.9346
88 1 H 6.66071 11.024 13.1292
89 1 H 6.3747 9.73474 14.2045
90 1 H 4.85763 10.9039 14.9664
91 2 C 11.1086 4.7373 14.6634
92 2 C 10.8942 6.14075 14.0019
93 4 O 12.0915 6.74273 14.027
94 1 H 12.1694 4.59832 14.9517
95 1 H 10.4228 4.50732 15.5354
96 1 H 11.0404 3.89398 13.9574
97 1 H 10.1403 6.83798 14.4353
98 1 H 10.6403 5.9293 13.0244
99 1 H 11.9733 7.51433 13.5373
100 2 C 5.76002 13.7891 12.0598
101 2 C 7.0935 14.3953 11.5607
102 4 O 6.91145 15.7696 11.1653
103 1 H 4.89505 14.2298 11.5782
104 1 H 5.71093 12.7071 11.8979
105 1 H 5.55271 13.9158 13.1112
106 1 H 7.31658 13.8554 10.67
107 1 H 7.83856 14.2483 12.334
108 1 H 6.72037 16.2817 11.9685
109 2 C 3.95259 15.9278 5.74388
110 2 C 3.5393 14.8022 4.69148
111 4 O 3.40305 13.5039 5.29678
112 1 H 3.16188 15.9903 6.44994
113 1 H 4.95399 15.6482 6.10526
114 1 H 4.06496 16.8913 5.26977
115 1 H 4.35477 14.667 3.97118
116 1 H 2.62857 14.9714 4.13433
117 1 H 2.48335 13.2464 5.21937
118 2 C 3.76797 6.98998 10.0319
119 2 C 3.67443 8.04687 8.89662
120 4 O 2.55758 8.93868 9.06728
121 1 H 2.99498 6.23743 10.0394
122 1 H 4.74191 6.49662 9.90973
123 1 H 3.84256 7.46698 11.0093
124 1 H 3.66612 7.66373 7.88195
125 1 H 4.60368 8.7215 8.98612
126 1 H 2.63011 9.33005 9.96192
127 2 C 7.23002 -0.49659 15.6837
128 2 C 7.22798 -0.495082 14.1582
129 4 O 6.62434 16.9887 13.635
130 1 H 7.89853 0.394891 15.9609
131 1 H 6.24176 -0.510917 16.0954
132 1 H 7.77926 17.2405 16.0283
133 1 H 8.24358 -0.420443 13.7834
134 1 H 6.62342 0.341006 13.7293
135 1 H 6.34152 16.4544 14.3883
136 2 C 10.4116 11.6133 4.13877
137 2 C 11.394 12.4322 4.94041
138 4 O 12.0937 13.3648 4.05231
139 1 H 10.919 10.9323 3.39555
140 1 H 9.92699 10.8675 4.78975
141 1 H 9.61341 12.2448 3.73765
142 1 H 12.1439 11.7818 5.52284
143 1 H 10.8415 12.9963 5.77516
144 1 H 12.4828 14.0721 4.58293
145 2 C 5.20881 17.5762 0.663956
146 2 C 6.11329 16.3557 0.676813
147 4 O 7.419 16.6869 0.281639
148 1 H 4.18567 17.1895 0.634396
149 1 H 5.36487 -0.344816 1.46458
150 1 H 5.37814 -0.375585 -0.231293
151 1 H 5.63074 15.5281 0.104767
152 1 H 6.16264 15.9388 1.66847
153 1 H 8.09433 16.0372 0.474054
154 2 C 0.764972 1.62531 17.029
155 2 C 0.176948 0.799204 15.9237
156 4 O -0.440806 1.591 14.9074
157 1 H 0.0688163 2.4124 17.291
158 1 H 1.04706 1.08248 -0.703046
159 1 H 1.6869 2.09847 16.7178
160 1 H -0.586829 0.136727 16.3799
161 1 H 1.00655 0.274387 15.4281
162 1 H -0.485412 2.53906 15.1285
163 2 C 17.0865 9.29314 6.46812
164 2 C -0.235574 8.96181 5.92708
165 4 O 0.337801 7.76005 6.56892
166 1 H 17.1436 9.53926 7.5039
167 1 H 16.6384 10.1968 6.08499
168 1 H 16.4158 8.41844 6.41175
169 1 H 0.470168 9.85812 6.08403
170 1 H -0.217044 8.72375 4.83839
171 1 H 0.0500241 7.75979 7.49678
172 2 C 13.3878 9.67588 2.56481
173 2 C 12.5162 8.50363 2.87592
174 4 O 11.3103 8.51164 2.17985
175 1 H 13.3619 9.78275 1.44065
176 1 H 12.8593 10.5689 2.91064
177 1 H 14.3803 9.62322 3.03103
178 1 H 12.3465 8.38831 3.96546
179 1 H 13.0675 7.59641 2.57153
180 1 H 11.3884 8.52353 1.22239
181 2 C 17.508 2.32314 3.53393
182 2 C -0.650731 3.5648 2.8962
183 4 O -0.067245 4.64632 3.65041
184 1 H 16.7213 2.49736 4.22639
185 1 H 17.2394 1.74106 2.66125
186 1 H -0.399965 1.68345 4.05095
187 1 H 17.1336 4.04482 2.46203
188 1 H -0.0665612 3.36063 2.02737
189 1 H -0.723374 4.97871 4.27657
190 2 C 7.60955 -0.306777 8.57233
191 2 C 6.47805 0.472846 7.92771
192 4 O 5.93418 1.48984 8.77034
193 1 H 7.7152 17.3264 8.18674
194 1 H 8.49531 0.319555 8.48233
195 1 H 7.32599 -0.417681 9.61954
196 1 H 5.71422 -0.200345 7.59482
197 1 H 6.80825 0.974178 7.02392
198 1 H 6.62801 1.77109 9.35287
199 2 C 10.865 16.2 15.9466
200 2 C 10.2555 15.882 14.6131
201 4 O 10.4945 14.559 14.1661
202 1 H 10.8239 17.2718 16.0112
203 1 H 10.4234 15.6921 16.7885
204 1 H 11.9014 15.9294 15.8532
205 1 H 10.7841 16.4871 13.9005
206 1 H 9.19619 16.1869 14.5845
207 1 H 10.1319 13.9126 14.7858
208 2 C 7.24793 8.74177 2.76407
209 2 C 6.43242 9.75522 1.96408
210 4 O 4.97314 9.6276 1.99204
211 1 H 7.09266 7.8352 2.16507
212 1 H 8.3043 8.95271 2.80414
213 1 H 6.8969 8.56799 3.77062
214 1 H 6.75611 9.73986 0.935456
215 1 H 6.67749 10.7281 2.35687
216 1 H 4.69955 8.70864 2.06022
217 2 C 0.214308 8.52813 14.3142
218 2 C 17.4183 8.31718 14.6884
219 4 O 16.6052 9.19654 13.8932
220 1 H 0.356753 8.76607 13.2723
221 1 H 0.547548 9.42724 14.7944
222 1 H 0.896312 7.75269 14.5341
223 1 H 17.3716 8.50906 15.7952
224 1 H 17.164 7.27739 14.4899
225 1 H 15.682 9.16468 14.1764
226 2 C 14.287 4.63712 6.05541
227 2 C 14.756 5.67852 4.98296
228 4 O 16.1191 5.88106 5.09432
229 1 H 14.6463 3.61607 5.81942
230 1 H 14.7338 4.94566 7.01207
231 1 H 13.2242 4.58954 6.24587
232 1 H 14.2201 6.59901 5.27462
233 1 H 14.4793 5.34232 3.9642
234 1 H 16.389 5.72002 6.00361
235 2 C 0.721754 17.1349 0.955519
236 2 C 0.150009 16.4583 2.11705
237 4 O 17.4473 16.1066 1.85141
238 1 H 0.889788 16.4728 0.186329
239 1 H 0.0348753 -0.741855 0.566741
240 1 H 1.6521 17.6073 1.18201
241 1 H 0.00297126 17.0486 3.01175
242 1 H 0.784261 15.5882 2.47012
243 1 H 0.864296 4.97649 5.20876
244 2 C 13.2374 17.1937 7.60718
245 2 C 11.8715 17.5363 7.08264
246 4 O 11.5454 16.793 5.80951
247 1 H 13.4658 -0.798606 8.50495
248 1 H 13.283 16.206 8.15149
249 1 H 14.0849 17.172 7.03399
250 1 H 11.6971 -0.0450981 7.03463
251 1 H 11.0956 17.1259 7.711
252 1 H 10.7893 17.2983 5.52129
253 2 C 1.79786 5.33488 0.0814009
254 2 C 0.283687 5.48102 -0.328466
255 4 O 0.34024 6.44095 17.2182
256 1 H 2.00845 5.15705 1.13856
257 1 H 2.32523 4.47919 -0.405177
258 1 H 2.32616 6.23878 -0.177358
259 1 H -0.344073 5.83601 0.454226
260 1 H -0.261301 4.66055 -0.757452
261 1 H -0.595628 6.62064 16.933
262 2 C 17.2902 12.7008 4.30848
263 2 C -0.116839 12.1345 3.5593
264 4 O 0.979121 13.0072 3.67561
265 1 H 17.5553 12.5363 5.40279
266 1 H 17.2631 13.7732 4.20417
267 1 H 16.354 12.2904 3.91442
268 1 H -0.437804 11.9979 2.4982
269 1 H 0.0346934 11.1192 3.94661
270 1 H 1.67334 12.569 3.10988
271 2 C 14.5757 1.42116 -0.844561
272 2 C 15.2924 2.39573 16.8341
273 4 O 14.8584 3.77225 17.0681
274 1 H 13.4957 1.51575 17.7334
275 1 H 14.8199 0.347823 17.6982
276 1 H 14.71 1.61535 0.178802
277 1 H 15.1693 2.13243 15.8016
278 1 H 16.3396 2.41984 16.9961
279 1 H 15.4506 4.44312 16.6781
280 2 C 12.0489 1.12339 10.4421
281 2 C 10.5717 0.902765 10.7303
282 4 O 9.85729 2.0894 10.4414
283 1 H 12.4756 1.72384 11.2739
284 1 H 12.5882 0.165923 10.3629
285 1 H 12.2233 1.6146 9.47914
286 1 H 10.516 0.615833 11.807
287 1 H 10.1267 0.0884972 10.1851
288 1 H 8.92196 1.90843 10.6487
289 2 C 7.20199 5.32099 10.9618
290 2 C 7.94925 4.03134 11.2643
291 4 O 7.17728 2.93532 10.7434
292 1 H 6.15978 5.21342 11.219
293 1 H 7.65305 6.21025 11.4562
294 1 H 7.1814 5.52848 9.87632
295 1 H 8.10636 3.95061 12.3212
296 1 H 8.92259 4.05183 10.7762
297 1 H 6.3056 2.8478 11.1563
298 2 C 13.1086 8.83136 6.79939
299 2 C 13.0796 9.77239 8.00574
300 4 O 11.7061 9.79912 8.36947
301 1 H 14.1327 8.6346 6.53328
302 1 H 12.6086 7.88528 7.00993
303 1 H 12.6967 9.37187 5.95668
304 1 H 13.4052 10.7319 7.64951
305 1 H 13.6769 9.51975 8.90776
306 1 H 11.2666 9.4526 7.60052
307 2 C 11.2931 10.3953 14.5974
308 2 C 12.7924 10.0308 14.9273
309 4 O 13.6547 10.013 13.8702
310 1 H 10.8514 9.55336 14.0891
311 1 H 10.7365 10.6016 15.5057
312 1 H 11.3051 11.3301 14.0339
313 1 H 12.7069 9.03203 15.2962
314 1 H 13.1643 10.7183 15.6825
315 1 H 13.8092 10.8744 13.4848
316 2 C 4.87814 12.0574 9.06903
317 2 C 3.74041 12.1004 8.03308
318 4 O 3.08889 13.3559 8.12662
319 1 H 5.83152 12.5183 8.76839
320 1 H 4.55893 12.5939 9.96994
321 1 H 5.08458 11.0361 9.38041
322 1 H 3.05256 11.2932 8.26611
323 1 H 4.16966 11.8222 7.04876
324 1 H 3.59645 13.9949 7.60392
325 2 C 1.10704 0.503457 10.0803
326 2 C -0.17639 0.718842 10.8435
327 4 O 0.0361881 0.430277 12.2261
328 1 H 1.70776 -0.406146 10.274
329 1 H 0.904879 0.392113 9.01723
330 1 H 1.80556 1.30322 10.2595
331 1 H 17.6515 0.0829997 10.4793
332 1 H -0.473351 1.76697 10.6677
333 1 H -0.372242 1.09033 12.8217
334 2 C 1.88419 4.10689 12.6789
335 2 C 1.91119 3.91359 14.1357
336 4 O 0.648119 4.26827 14.8086
337 1 H 2.76714 3.65344 12.232
338 1 H 1.02387 3.59982 12.1963
339 1 H 1.77508 5.20182 12.5354
340 1 H 2.72129 4.35348 14.6575
341 1 H 2.02305 2.88409 14.4293
342 1 H 0.597118 5.16171 15.1624
343 2 C 6.68277 13.5557 15.4108
344 2 C 5.87001 13.9518 16.6408
345 4 O 6.25525 13.2924 -0.761292
346 1 H 6.61446 14.2933 14.7012
347 1 H 7.72623 13.3079 15.7804
348 1 H 6.19593 12.7266 14.8746
349 1 H 4.80071 13.7391 16.5664
350 1 H 5.98875 14.9657 16.8651
351 1 H 7.10681 13.6181 -0.462799
352 2 C 3.85157 0.0294734 12.4943
353 2 C 4.80964 1.12604 12.008
354 4 O 4.24026 1.98066 11.0294
355 1 H 3.75565 -0.754504 11.7001
356 1 H 4.24187 -0.464983 13.3914
357 1 H 2.85709 0.470719 12.7224
358 1 H 5.8256 0.788061 11.7354
359 1 H 4.9293 1.82303 12.8328
360 1 H 4.61842 1.82484 10.1414
361 2 C 9.82683 14.463 9.13331
362 2 C 10.3871 15.5329 10.0713
363 4 O 11.2981 15.069 11.1575
364 1 H 8.84476 14.2106 9.49724
365 1 H 9.83389 14.9599 8.17884
366 1 H 10.4225 13.5934 8.99951
367 1 H 9.52992 16.0636 10.5014
368 1 H 10.9815 16.2426 9.52535
369 1 H 10.7518 14.7404 11.8594
370 2 C 13.1723 7.30804 10.9998
371 2 C 12.3127 6.30381 10.1959
372 4 O 10.9658 6.34933 10.5676
373 1 H 13.3774 6.97048 12.0004
374 1 H 14.1328 7.45306 10.6107
375 1 H 12.7832 8.3217 10.9728
376 1 H 12.6469 5.26165 10.2885
377 1 H 12.4136 6.5356 9.09066
378 1 H 10.4327 6.0134 9.83378
379 2 C 1.04555 7.99304 2.43213
380 2 C 1.82424 7.46421 3.59543
381 4 O 3.21614 7.24505 3.22951
382 1 H 1.02195 7.24116 1.66392
383 1 H 0.0329287 8.19707 2.75298
384 1 H 1.47421 8.92733 2.0792
385 1 H 1.4356 6.50473 3.85899
386 1 H 1.86883 8.10359 4.45553
387 1 H 3.27505 6.74902 2.41279
388 2 C 12.4087 11.955 10.8518
389 2 C 13.6756 12.4842 10.243
390 4 O 13.5668 13.9513 10.1609
391 1 H 11.5305 12.1661 10.2515
392 1 H 12.4039 10.8787 11.0163
393 1 H 12.2926 12.5266 11.7878
394 1 H 13.8781 12.1032 9.24394
395 1 H 14.4774 12.2101 10.9191
396 1 H 12.8046 14.2447 10.6578
397 2 C 1.12724 12.2955 12.7066
398 2 C 1.93531 11.8111 11.5184
399 4 O 2.52191 10.5242 11.6859
400 1 H 1.77801 12.046 13.5298
401 1 H 1.12659 13.4024 12.7311
402 1 H 0.110666 11.8742 12.8449
403 1 H 2.76629 12.4953 11.3505
404 1 H 1.32147 11.8302 10.5914
405 1 H 2.87557 10.5462 12.5925
406 2 C 2.55643 10.2653 16.3896
407 2 C 3.44022 11.0904 17.3508
408 4 O 4.77572 11.09 16.7571
409 1 H 2.47954 10.6629 15.3859
410 1 H 2.72066 9.21601 16.4323
411 1 H 1.51979 10.3074 16.8167
412 1 H 3.59731 10.7564 -0.275458
413 1 H 2.9215 12.0401 17.3506
414 1 H 5.3161 11.562 17.3886
415 2 C 9.88737 6.24273 5.4576
416 2 C 9.3169 7.16879 6.39553
417 4 O 9.87088 7.04413 7.71185
418 1 H 9.51673 5.23559 5.60382
419 1 H 9.61124 6.58282 4.48254
420 1 H 10.9679 6.25151 5.45757
421 1 H 8.22352 6.98953 6.35372
422 1 H 9.52343 8.21638 6.02878
423 1 H 9.55158 7.64565 8.38337
424 2 C 3.27425 13.8836 1.3019
425 2 C 3.80156 12.5864 1.92589
426 4 O 2.77898 11.6044 1.88207
427 1 H 2.5978 13.4609 0.589273
428 1 H 2.6531 14.4068 1.99681
429 1 H 4.09673 14.5283 0.9529
430 1 H 4.0604 12.7476 3.00523
431 1 H 4.74439 12.216 1.47421
432 1 H 3.20647 10.7844 2.18687
433 2 C 1.27126 4.23505 8.15822
434 2 C 0.316523 4.45205 7.03692
435 4 O 0.862221 5.33725 6.11016
436 1 H 1.63288 5.14737 8.56701
437 1 H 0.992865 3.56506 8.96832
438 1 H 2.18959 3.72702 7.81243
439 1 H -0.775965 4.79727 7.32086
440 1 H 0.129626 3.55823 6.38297
441 1 H 0.769274 6.3165 6.21627
442 2 C 13.8691 6.71886 17.555
443 2 C 15.3626 6.88351 -0.848263
444 4 O 16.1733 6.21303 16.7774
445 1 H 13.3703 7.56874 -0.585895
446 1 H 13.5794 6.63475 16.5024
447 1 H 13.433 5.78238 -0.69987
448 1 H 15.646 6.49222 0.129409
449 1 H 15.6859 7.92055 17.7874
450 1 H 16.0637 6.61733 15.9449
ITEM: TIMESTEP
7400
ITEM: NUMBER OF ATOMS
450
ITEM: BOX BOUNDS pp pp pp
-8.2636902219984698e-01 1.7751369022199686e+01
-8.2636902219984698e-01 1.7751369022199686e+01
-8.2636902219984698e-01 1.7751369022199686e+01
ITEM: ATOMS id type element x y z
1 2 C 6.6285 4.52282 15.3668
2 2 C 6.16083 3.21731 16.0079
3 4 O 7.15878 2.62026 16.7593
4 1 H 7.06592 5.20819 16.1079
5 1 H 7.35659 4.3317 14.5841
6 1 H 5.81902 5.04528 14.9086
7 1 H 5.87411 2.55227 15.1659
8 1 H 5.20086 3.35671 16.5316
9 1 H 6.70394 1.83971 17.1195
10 2 C 10.9286 11.7541 0.350956
11 2 C 12.0381 12.7625 0.584742
12 4 O 11.9093 13.6592 -0.495607
13 1 H 11.1815 11.2175 -0.566121
14 1 H 10.8568 11.0912 1.19734
15 1 H 10.0571 12.42 0.252221
16 1 H 12.9929 12.196 0.654044
17 1 H 11.9342 13.2788 1.5251
18 1 H 12.2333 14.5363 -0.303812
19 2 C 10.5288 6.49883 -0.619581
20 2 C 9.79996 7.76158 17.596
21 4 O 10.7887 8.7972 17.5172
22 1 H 10.8666 6.68157 0.403505
23 1 H 9.91797 5.59481 -0.502233
24 1 H 11.3391 6.19987 17.2966
25 1 H 9.07444 7.94859 -0.174944
26 1 H 9.26259 7.67412 16.6369
27 1 H 10.4152 9.58991 -0.718034
28 2 C 16.9759 7.06424 10.5441
29 2 C -0.667112 8.28677 10.391
30 4 O 0.235165 8.00927 9.32034
31 1 H 17.5577 6.16564 10.7498
32 1 H 16.4106 7.07374 11.4547
33 1 H 16.348 6.96994 9.63777
34 1 H -0.146746 8.44316 11.351
35 1 H 17.3684 9.17063 10.1416
36 1 H 0.984793 8.61624 9.36326
37 2 C 2.05113 16.3928 14.9955
38 2 C 3.20512 15.4716 15.2821
39 4 O 4.39243 15.7963 15.3104
40 1 H 2.49573 17.3437 14.6219
41 1 H 1.31026 16.0745 14.2854
42 1 H 1.47025 16.5745 15.8718
43 1 H 2.98774 14.3206 15.2918
44 1 H 17.275 15.6021 1.29503
45 1 H 4.17512 3.66621 9.58043
46 2 C 7.96014 13.9522 5.56538
47 2 C 6.93742 12.8346 5.50437
48 4 O 7.23212 11.6749 4.6925
49 1 H 7.60891 14.8037 6.13163
50 1 H 8.89984 13.6625 6.03031
51 1 H 8.19263 14.2927 4.55528
52 1 H 5.97019 13.1617 5.13706
53 1 H 6.74897 12.4975 6.53148
54 1 H 7.95559 11.1534 5.0465
55 2 C 16.3252 4.35668 13.6063
56 2 C 15.0225 5.00156 13.484
57 4 O 14.7997 6.22572 14.31
58 1 H 16.3472 3.63902 14.4292
59 1 H 16.5815 3.75261 12.7339
60 1 H 17.0646 5.2245 13.6265
61 1 H 14.2473 4.27181 13.7628
62 1 H 14.8165 5.16473 12.4113
63 1 H 13.8698 6.40689 14.1454
64 2 C 8.04835 10.2527 8.70049
65 2 C 8.79868 9.87573 9.94423
66 4 O 9.4815 8.62672 9.5885
67 1 H 7.45879 9.41588 8.43136
68 1 H 7.44705 11.1603 8.87703
69 1 H 8.76633 10.4365 7.90832
70 1 H 8.0731 9.74999 10.7028
71 1 H 9.50935 10.6392 10.2716
72 1 H 9.71644 8.082 10.3477
73 2 C 5.07279 3.7306 5.76912
74 2 C 5.47805 4.83358 6.77974
75 4 O 6.39637 4.33891 7.77859
76 1 H 4.7643 2.8071 6.28337
77 1 H 4.18029 4.00302 5.18663
78 1 H 5.88833 3.3795 5.14777
79 1 H 4.56745 5.18426 7.21822
80 1 H 5.97275 5.64172 6.2708
81 1 H 6.11766 3.45897 8.05637
82 2 C 5.93269 9.51667 12.2216
83 2 C 6.00981 10.3699 13.5253
84 4 O 4.63897 10.8497 13.788
85 1 H 5.16278 8.73812 12.2015
86 1 H 5.67597 10.1759 11.3519
87 1 H 6.86347 8.99051 11.9855
88 1 H 6.65403 11.2427 13.374
89 1 H 6.34498 9.83784 14.4234
90 1 H 4.53243 10.9768 14.7581
91 2 C 11.0093 4.80778 14.5184
92 2 C 10.7802 6.11344 13.8143
93 4 O 12.0189 6.93704 13.9348
94 1 H 12.0363 4.60373 14.6734
95 1 H 10.4679 4.78066 15.4694
96 1 H 10.7129 3.98054 13.9242
97 1 H 9.97133 6.74231 14.2222
98 1 H 10.6207 5.79195 12.7513
99 1 H 11.9024 7.6702 13.313
100 2 C 5.536 13.7746 11.6931
101 2 C 6.93966 14.343 11.7354
102 4 O 7.08018 15.6138 11.1373
103 1 H 5.17483 13.8162 10.6338
104 1 H 5.41386 12.7593 12.0322
105 1 H 4.81977 14.3269 12.3085
106 1 H 7.53818 13.6154 11.1746
107 1 H 7.32568 14.301 12.7561
108 1 H 6.98187 16.2499 11.86
109 2 C 4.07063 15.7506 5.90422
110 2 C 3.70399 14.8843 4.75452
111 4 O 3.65396 13.5318 5.2915
112 1 H 3.16795 15.6821 6.56243
113 1 H 4.98173 15.3411 6.34876
114 1 H 4.30249 16.7485 5.5984
115 1 H 4.49307 14.8984 3.98138
116 1 H 2.74121 15.0668 4.31664
117 1 H 2.79932 13.1794 5.04521
118 2 C 4.21293 6.87014 9.85839
119 2 C 3.65518 7.80948 8.84609
120 4 O 2.72721 8.67368 9.50837
121 1 H 3.35734 6.4306 10.364
122 1 H 4.89144 6.12823 9.47261
123 1 H 4.76931 7.46368 10.6121
124 1 H 3.13057 7.28727 8.02325
125 1 H 4.43559 8.37685 8.44579
126 1 H 3.10511 9.36405 10.0416
127 2 C 7.07209 -0.247985 15.3899
128 2 C 7.19859 -0.666966 13.9335
129 4 O 6.62659 16.6111 13.5308
130 1 H 7.64672 0.68068 15.4254
131 1 H 6.03573 -0.0109705 15.6116
132 1 H 7.39609 17.5435 16.0153
133 1 H 8.28513 -0.780353 13.743
134 1 H 6.82403 0.112427 13.2968
135 1 H 5.6866 16.5495 13.7658
136 2 C 10.8201 11.595 4.45505
137 2 C 11.5985 12.6757 5.12299
138 4 O 12.0972 13.5595 4.11829
139 1 H 11.3695 11.1378 3.67781
140 1 H 10.5384 10.8093 5.18183
141 1 H 9.91656 12.0321 4.09458
142 1 H 12.4533 12.3309 5.65324
143 1 H 11.0192 13.2928 5.79589
144 1 H 12.2397 14.4398 4.46398
145 2 C 5.17162 17.6327 0.531585
146 2 C 5.9766 16.3666 0.742622
147 4 O 7.3082 16.6059 0.195848
148 1 H 4.15715 17.577 0.871372
149 1 H 5.67104 -0.10277 1.04781
150 1 H 5.1053 -0.885533 -0.58023
151 1 H 5.46995 15.5841 0.314504
152 1 H 6.13364 16.2172 1.84797
153 1 H 7.90124 15.8329 0.24763
154 2 C 0.847307 1.55339 16.8305
155 2 C -0.0632468 0.872131 15.816
156 4 O -0.564643 1.77326 14.8409
157 1 H 0.393463 2.24888 17.5338
158 1 H 1.26637 0.718668 17.4314
159 1 H 1.71315 2.00404 16.348
160 1 H 17.6835 0.466908 16.3787
161 1 H 0.474071 0.0472642 15.3522
162 1 H -0.174877 2.64344 14.9991
163 2 C 17.2575 9.61245 6.33776
164 2 C -0.32326 8.61988 5.74153
165 4 O 0.0507007 7.62753 6.65617
166 1 H 17.5684 10.3553 7.09399
167 1 H 16.8353 10.1797 5.47389
168 1 H 16.3907 9.0776 6.72448
169 1 H 0.478541 9.14505 5.32505
170 1 H -0.827895 8.1533 4.92379
171 1 H 0.0333873 7.94444 7.57207
172 2 C 13.522 9.76098 2.59764
173 2 C 12.3908 8.63433 2.67939
174 4 O 11.2295 8.8374 1.83787
175 1 H 13.6568 9.94693 1.5614
176 1 H 13.2812 10.6367 3.17006
177 1 H 14.3876 9.30515 3.04504
178 1 H 12.1222 8.494 3.69532
179 1 H 12.8828 7.77551 2.21213
180 1 H 11.4171 8.7967 0.874107
181 2 C 17.7014 2.3671 3.60183
182 2 C -0.739301 3.49061 2.5857
183 4 O -0.239313 4.57199 3.41301
184 1 H 16.9936 2.83204 4.33107
185 1 H 17.3033 1.49286 3.10922
186 1 H 0.0807533 1.98458 4.04867
187 1 H 16.8493 3.78807 2.13897
188 1 H -0.0616809 3.29067 1.74424
189 1 H -0.531739 5.45311 3.0978
190 2 C 7.66413 -0.246151 8.52162
191 2 C 6.6417 0.718194 7.89857
192 4 O 6.07017 1.64648 8.89032
193 1 H 8.15463 -0.753988 7.67987
194 1 H 8.39962 0.355731 9.06508
195 1 H 7.22258 17.6117 9.2228
196 1 H 5.84402 0.0861244 7.52599
197 1 H 7.07307 1.35249 7.09661
198 1 H 6.83354 1.84657 9.47948
199 2 C 10.9574 16.2031 15.8783
200 2 C 10.1551 15.8398 14.6077
201 4 O 10.6104 14.6293 14.0786
202 1 H 10.7538 17.2351 16.1911
203 1 H 10.7196 15.5579 16.7369
204 1 H 12.018 16.1551 15.5862
205 1 H 10.4112 16.5892 13.8572
206 1 H 9.08714 15.8757 14.7958
207 1 H 10.7596 14.0447 14.8174
208 2 C 7.26391 8.74813 2.29515
209 2 C 6.34669 10.0014 2.00062
210 4 O 5.02434 9.42504 1.82649
211 1 H 7.04419 8.05573 1.4889
212 1 H 8.34235 9.00786 2.32534
213 1 H 7.04499 8.24763 3.239
214 1 H 6.5869 10.4323 1.03006
215 1 H 6.41166 10.6891 2.85063
216 1 H 4.64986 9.08184 2.64017
217 2 C -0.00690793 8.34337 14.3479
218 2 C 17.0765 8.24937 14.5119
219 4 O 16.5092 9.15061 13.6019
220 1 H 0.400455 7.74321 13.4589
221 1 H 0.356647 9.35867 14.1511
222 1 H 0.547316 7.918 15.2023
223 1 H 16.8645 8.53792 15.5011
224 1 H 16.794 7.22936 14.2549
225 1 H 15.5427 9.1087 13.634
226 2 C 14.3247 4.31162 5.62505
227 2 C 14.8199 5.49297 4.8634
228 4 O 16.1673 5.84408 5.1355
229 1 H 15.0134 3.51607 5.5151
230 1 H 14.1153 4.40866 6.68963
231 1 H 13.3605 3.97069 5.14573
232 1 H 14.2838 6.37057 5.15888
233 1 H 14.6794 5.27432 3.80866
234 1 H 16.6162 5.03032 5.36877
235 2 C 0.969732 17.2132 1.17418
236 2 C 0.395579 16.0816 2.10407
237 4 O 17.5498 16.1205 2.06837
238 1 H 0.719863 16.991 0.0513074
239 1 H 0.736352 -0.320299 1.49807
240 1 H 2.04537 17.0468 1.15828
241 1 H 0.633215 16.3117 3.14906
242 1 H 0.818471 15.1189 1.75686
243 1 H 0.359028 4.8181 5.22545
244 2 C 13.2611 17.0548 7.42309
245 2 C 11.9118 17.5441 7.01728
246 4 O 11.5524 16.8389 5.85244
247 1 H 13.5477 17.3672 8.34573
248 1 H 13.5376 15.9901 7.51572
249 1 H 14.0508 17.4568 6.63911
250 1 H 11.8041 0.130762 6.96245
251 1 H 11.1568 17.1678 7.73548
252 1 H 10.6321 17.071 5.75503
253 2 C 1.85911 5.49202 -0.00296049
254 2 C 0.420814 5.46423 -0.313054
255 4 O 0.102543 6.48312 17.3101
256 1 H 2.0805 4.57374 0.550114
257 1 H 2.38181 5.42805 17.6376
258 1 H 2.26889 6.25093 0.668709
259 1 H -0.153803 5.64454 0.642412
260 1 H 0.0820721 4.50601 -0.766771
261 1 H 17.7527 6.33065 17.0998
262 2 C 17.3543 12.8714 4.48964
263 2 C -0.176347 12.2086 3.63634
264 4 O 0.927396 13.0549 3.63987
265 1 H -0.761724 13.2913 5.35323
266 1 H 17.0346 13.8041 4.00662
267 1 H 16.4987 12.2387 4.68074
268 1 H -0.571916 11.9217 2.69018
269 1 H 0.0909246 11.2254 4.05288
270 1 H 1.65603 12.6893 3.16342
271 2 C 14.7325 1.89771 17.7523
272 2 C 15.5189 2.83018 16.9864
273 4 O 14.763 4.01412 17.0218
274 1 H 13.7146 1.73414 17.3744
275 1 H 15.2294 0.933595 -0.756467
276 1 H 14.6062 2.24654 0.24768
277 1 H 15.7724 2.46988 15.9598
278 1 H 16.5126 3.03857 17.4583
279 1 H 15.2816 4.77804 16.7513
280 2 C 11.9162 1.27229 10.6335
281 2 C 10.405 0.999522 10.8103
282 4 O 9.63977 2.09319 10.203
283 1 H 12.182 2.23029 11.0786
284 1 H 12.3902 0.471157 11.2015
285 1 H 12.1983 1.23624 9.59127
286 1 H 10.2072 0.78077 11.859
287 1 H 10.1015 0.114347 10.2149
288 1 H 8.72877 2.00183 10.5324
289 2 C 7.10662 5.25172 10.8357
290 2 C 7.73468 4.08307 11.5399
291 4 O 7.14987 2.7806 11.2296
292 1 H 6.17369 5.62367 11.2621
293 1 H 7.80007 6.07608 10.8155
294 1 H 6.96616 5.00659 9.78605
295 1 H 7.5892 4.21901 12.6194
296 1 H 8.82003 3.98175 11.3546
297 1 H 6.22654 2.96577 11.0273
298 2 C 13.0017 8.51645 6.82858
299 2 C 12.7581 9.46882 7.97616
300 4 O 11.4285 9.70772 8.38244
301 1 H 14.0661 8.54293 6.4901
302 1 H 12.7474 7.53236 7.20187
303 1 H 12.3541 8.7827 5.99831
304 1 H 13.1275 10.4644 7.69753
305 1 H 13.3261 9.19724 8.84097
306 1 H 11.0733 9.02107 8.92509
307 2 C 11.3432 10.3084 14.6604
308 2 C 12.7283 9.98247 15.1059
309 4 O 13.5923 9.73581 13.9547
310 1 H 11.0217 9.56376 13.8911
311 1 H 10.6712 10.3167 15.5212
312 1 H 11.3923 11.2919 14.159
313 1 H 12.6565 9.08568 15.7466
314 1 H 13.1731 10.7947 15.7053
315 1 H 13.527 10.5309 13.3886
316 2 C 4.62602 11.7658 9.15967
317 2 C 3.6947 11.8251 7.97073
318 4 O 2.84364 12.9443 8.07939
319 1 H 5.05081 12.7163 9.39709
320 1 H 4.06153 11.4598 10.0423
321 1 H 5.42837 11.0391 9.01477
322 1 H 3.05978 10.9448 8.02028
323 1 H 4.28067 11.7364 7.05224
324 1 H 3.16837 13.6216 7.43804
325 2 C 1.13803 0.262186 10.3354
326 2 C -0.18902 0.590889 10.9457
327 4 O -0.0592916 0.214268 12.3505
328 1 H 1.39556 -0.785893 10.3724
329 1 H 1.1333 0.575667 9.30225
330 1 H 2.04063 0.72699 10.8339
331 1 H 17.5431 0.0760905 10.5066
332 1 H -0.368641 1.66574 10.8605
333 1 H -0.383996 0.894839 12.9377
334 2 C 1.98124 4.44335 12.8606
335 2 C 1.83751 3.86239 14.2742
336 4 O 0.693942 4.30323 14.9706
337 1 H 2.45542 3.66461 12.2462
338 1 H 1.07265 4.6442 12.385
339 1 H 2.54742 5.36227 12.9038
340 1 H 2.70901 4.16354 14.9262
341 1 H 1.81286 2.74508 14.2594
342 1 H 0.84685 5.05727 15.5326
343 2 C 7.01761 13.4465 15.6399
344 2 C 6.00309 13.8825 16.7526
345 4 O 6.2493 13.1153 -0.618857
346 1 H 6.4599 13.5422 14.6232
347 1 H 7.75201 14.1604 15.7279
348 1 H 7.26598 12.3581 15.6837
349 1 H 4.97263 13.68 16.4329
350 1 H 6.0685 14.9774 16.9789
351 1 H 7.14024 12.7696 -0.676787
352 2 C 3.785 0.377174 12.6411
353 2 C 4.72544 1.38279 12.0111
354 4 O 4.01985 2.12423 11.0975
355 1 H 3.40205 -0.357945 11.9521
356 1 H 4.32923 -0.0706158 13.4837
357 1 H 2.9397 0.889479 13.0314
358 1 H 5.62369 0.913569 11.611
359 1 H 5.09551 2.04249 12.8144
360 1 H 4.33668 1.90452 10.2224
361 2 C 9.74018 14.3704 8.93751
362 2 C 10.151 15.407 10.008
363 4 O 10.9302 14.8658 11.0427
364 1 H 9.02253 13.6929 9.39512
365 1 H 9.31669 14.8729 8.06157
366 1 H 10.6139 13.7863 8.57727
367 1 H 9.25108 15.8506 10.4621
368 1 H 10.7279 16.2652 9.59986
369 1 H 10.4483 14.9298 11.8821
370 2 C 13.2928 7.24098 11.0403
371 2 C 12.3776 6.64853 10.0562
372 4 O 11.0459 6.58032 10.6968
373 1 H 13.4357 6.51963 11.8206
374 1 H 14.2828 7.48655 10.6122
375 1 H 12.9222 8.16589 11.5372
376 1 H 12.7108 5.67479 9.71639
377 1 H 12.303 7.29131 9.20038
378 1 H 10.5722 5.98329 10.1325
379 2 C 0.92898 8.05156 2.51736
380 2 C 1.76862 7.32962 3.5679
381 4 O 3.16415 7.22167 3.20614
382 1 H 0.628076 7.39627 1.69469
383 1 H 0.0189461 8.27283 3.06561
384 1 H 1.39375 8.93957 2.09177
385 1 H 1.38428 6.32281 3.82702
386 1 H 1.76982 7.87217 4.54134
387 1 H 3.33231 6.54859 2.55563
388 2 C 12.5706 11.7477 10.7213
389 2 C 13.8566 12.618 10.5654
390 4 O 13.6574 14.0157 10.4974
391 1 H 11.8876 11.7491 9.85816
392 1 H 12.9024 10.7291 10.8262
393 1 H 12.0066 12.0466 11.6271
394 1 H 14.3681 12.306 9.64406
395 1 H 14.5472 12.3649 11.3923
396 1 H 12.7511 14.2189 10.8209
397 2 C 1.20759 12.2924 12.7191
398 2 C 2.46727 11.9829 11.9129
399 4 O 2.2754 10.6079 11.3992
400 1 H 1.36815 11.898 13.7396
401 1 H 0.953204 13.3293 12.7283
402 1 H 0.378222 11.6865 12.314
403 1 H 3.37462 11.989 12.4942
404 1 H 2.53347 12.702 11.1425
405 1 H 2.89869 10.1002 11.9079
406 2 C 2.56103 10.369 16.4724
407 2 C 3.72247 10.7854 17.356
408 4 O 5.05418 10.6452 16.7756
409 1 H 2.45096 10.9496 15.5421
410 1 H 2.57912 9.30184 16.1803
411 1 H 1.65571 10.3773 17.0497
412 1 H 3.88325 10.1185 -0.391731
413 1 H 3.43171 11.7985 17.6649
414 1 H 5.56623 11.1118 17.4771
415 2 C 9.92551 6.32817 5.36413
416 2 C 9.19496 7.12774 6.47983
417 4 O 9.86695 6.84305 7.70855
418 1 H 9.77087 5.23135 5.45769
419 1 H 9.69495 6.5622 4.31736
420 1 H 10.9924 6.48238 5.54846
421 1 H 8.14855 6.85056 6.52273
422 1 H 9.30058 8.16527 6.3248
423 1 H 9.72153 7.47368 8.43302
424 2 C 3.36644 14.0557 1.57118
425 2 C 3.95363 12.6683 1.86219
426 4 O 2.91652 11.73 2.05604
427 1 H 3.01412 14.1141 0.509583
428 1 H 2.51698 14.1779 2.17868
429 1 H 4.16836 14.6986 1.752
430 1 H 4.69156 12.6939 2.65459
431 1 H 4.54003 12.3803 1.0338
432 1 H 3.3627 10.8699 2.04815
433 2 C 1.42185 4.03687 8.16196
434 2 C 0.318873 4.24521 7.21406
435 4 O 0.842777 5.06878 6.04962
436 1 H 1.35122 4.65564 9.07198
437 1 H 1.43777 2.99758 8.52418
438 1 H 2.42196 3.97039 7.74584
439 1 H -0.495804 4.68631 7.78653
440 1 H -0.202881 3.31875 6.89377
441 1 H 0.696393 5.98509 6.23009
442 2 C 13.6841 6.81655 17.3908
443 2 C 15.2042 7.00484 17.685
444 4 O 15.9576 6.28318 16.6853
445 1 H 13.0993 7.6156 -0.762847
446 1 H 13.4784 6.90021 16.3382
447 1 H 13.3786 5.82052 17.7173
448 1 H 15.4247 6.57901 0.115723
449 1 H 15.4945 8.07589 17.6254
450 1 H 15.639 6.54737 15.8068
ITEM: TIMESTEP
7500
ITEM: NUMBER OF ATOMS
450
ITEM: BOX BOUNDS pp pp pp
-8.3457662012425438e-01 1.7759576620124083e+01
-8.3457662012425438e-01 1.7759576620124083e+01
-8.3457662012425438e-01 1.7759576620124083e+01
ITEM: ATOMS id type element x y z
1 2 C 6.70468 4.51426 15.0326
2 2 C 5.87567 3.38774 15.6616
3 4 O 6.65636 2.84577 16.734
4 1 H 6.76077 5.39107 15.6711
5 1 H 7.73568 4.18247 14.9078
6 1 H 6.23257 4.88038 14.1097
7 1 H 5.70654 2.61013 14.9092
8 1 H 4.91136 3.77252 15.9935
9 1 H 6.26519 2.00352 16.9784
10 2 C 10.7902 12.0171 0.659854
11 2 C 11.9279 13.0184 0.908704
12 4 O 12.0716 13.7521 -0.294084
13 1 H 10.9625 11.596 -0.321588
14 1 H 10.7643 11.2511 1.39873
15 1 H 9.93727 12.6708 0.562653
16 1 H 12.7858 12.4374 1.17594
17 1 H 11.7343 13.6865 1.73096
18 1 H 12.9751 14.0311 -0.387406
19 2 C 10.268 6.61858 -0.295023
20 2 C 9.76738 7.85151 17.6207
21 4 O 10.7093 8.95104 17.8626
22 1 H 10.5865 6.7114 0.7347
23 1 H 9.45969 5.84255 -0.340655
24 1 H 11.14 6.13673 17.8806
25 1 H 8.76277 8.2143 -0.689905
26 1 H 9.75027 7.71056 16.5343
27 1 H 10.2691 9.78163 -0.610545
28 2 C 16.8781 7.17681 10.7419
29 2 C -0.686398 8.22369 10.5289
30 4 O 0.296312 7.94698 9.54787
31 1 H 17.303 6.21921 11.1052
32 1 H 16.2041 7.57703 11.4889
33 1 H 16.3869 6.97227 9.79093
34 1 H -0.239476 8.38127 11.5122
35 1 H 17.3642 9.17296 10.2768
36 1 H 1.03089 8.54221 9.75308
37 2 C 2.03742 16.3181 15.1065
38 2 C 3.21491 15.3473 15.0761
39 4 O 4.29693 15.7327 14.9355
40 1 H 2.30486 17.375 15.1866
41 1 H 1.38319 16.2561 14.2376
42 1 H 1.31662 15.9526 15.923
43 1 H 2.96838 14.3186 15.2549
44 1 H 17.3155 16.6458 1.58722
45 1 H 4.77149 3.75173 9.77984
46 2 C 7.98014 13.9188 5.37513
47 2 C 6.94127 12.8089 5.37473
48 4 O 7.3205 11.707 4.55639
49 1 H 7.61742 14.7476 5.98816
50 1 H 8.94324 13.669 5.86114
51 1 H 8.21419 14.2978 4.38454
52 1 H 5.96243 13.1164 5.01802
53 1 H 6.74813 12.4589 6.39305
54 1 H 8.22537 11.455 4.77583
55 2 C 16.5514 4.74737 13.6791
56 2 C 15.0389 4.95585 13.3403
57 4 O 14.6603 5.99605 14.3337
58 1 H 16.6408 4.43981 14.7175
59 1 H 16.8551 3.8302 13.1067
60 1 H 17.1803 5.52037 13.3719
61 1 H 14.3428 4.08481 13.4675
62 1 H 14.8219 5.36212 12.3468
63 1 H 13.716 6.23825 14.4432
64 2 C 8.23424 10.33 8.4916
65 2 C 8.79225 9.94944 9.86773
66 4 O 9.5599 8.79254 9.82089
67 1 H 7.43118 9.64871 8.16941
68 1 H 7.94008 11.3575 8.6126
69 1 H 8.9595 10.3068 7.67764
70 1 H 7.91406 9.77888 10.4827
71 1 H 9.37249 10.775 10.3172
72 1 H 9.99217 8.61723 10.6473
73 2 C 4.83198 3.82521 5.96208
74 2 C 5.4009 4.88141 6.80148
75 4 O 6.43275 4.38955 7.69065
76 1 H 4.22643 3.09907 6.49442
77 1 H 4.10205 4.31853 5.3119
78 1 H 5.52758 3.22968 5.38952
79 1 H 4.55698 5.36813 7.36729
80 1 H 5.86235 5.6399 6.15587
81 1 H 6.16075 3.5233 8.03587
82 2 C 6.1812 9.75861 12.2729
83 2 C 6.0188 10.2995 13.5996
84 4 O 4.76601 10.7092 13.844
85 1 H 5.39145 9.12736 12.0185
86 1 H 6.30503 10.5178 11.5374
87 1 H 7.12838 9.18467 12.227
88 1 H 6.65272 11.2136 13.5618
89 1 H 6.3656 9.60143 14.3718
90 1 H 4.52712 10.5242 14.7402
91 2 C 10.8985 4.7267 14.4231
92 2 C 10.8068 6.16032 13.7953
93 4 O 11.912 7.0336 14.2657
94 1 H 11.8002 4.08224 14.2076
95 1 H 10.9517 4.84339 15.4813
96 1 H 9.86557 4.18608 14.2256
97 1 H 9.93153 6.6717 14.1619
98 1 H 10.6124 6.04138 12.7017
99 1 H 12.1198 7.78095 13.6103
100 2 C 5.34684 14.0215 11.6801
101 2 C 6.82261 14.172 11.6734
102 4 O 7.20738 15.4169 11.1472
103 1 H 4.96523 14.0763 10.6508
104 1 H 5.01512 13.0718 12.0592
105 1 H 4.84237 14.7908 12.2609
106 1 H 7.30567 13.3512 11.1003
107 1 H 7.2588 14.0717 12.7087
108 1 H 6.97333 15.9982 11.8812
109 2 C 4.21623 15.7306 6.20328
110 2 C 3.88224 14.9576 4.93797
111 4 O 3.60262 13.605 5.14054
112 1 H 3.42403 15.6297 6.9446
113 1 H 5.13865 15.5061 6.71138
114 1 H 4.23301 16.7884 5.8097
115 1 H 4.65172 15.1094 4.19415
116 1 H 2.95385 15.3749 4.46474
117 1 H 3.08725 13.3163 4.37433
118 2 C 4.64702 6.73481 9.58161
119 2 C 3.60357 7.65521 8.93129
120 4 O 3.02135 8.5166 9.87499
121 1 H 4.07011 6.16088 10.3343
122 1 H 5.0502 6.04078 8.8811
123 1 H 5.41964 7.28609 10.0922
124 1 H 2.83871 6.99092 8.53108
125 1 H 4.10496 8.25796 8.1085
126 1 H 3.25264 9.44561 9.83881
127 2 C 6.97736 -0.200089 15.0766
128 2 C 7.25319 -0.853744 13.7084
129 4 O 6.52236 16.5479 13.6789
130 1 H 7.41222 0.746342 15.1458
131 1 H 5.87305 -0.00947266 15.1116
132 1 H 7.26253 17.672 15.8821
133 1 H 8.31156 17.5184 13.6026
134 1 H 7.00598 -0.169864 12.8888
135 1 H 5.82437 16.4658 14.3305
136 2 C 11.102 11.687 4.8323
137 2 C 11.9407 12.8889 5.26757
138 4 O 12.0018 13.815 4.20297
139 1 H 11.6112 11.1345 4.07046
140 1 H 10.8707 11.1132 5.72968
141 1 H 10.1812 12.0682 4.33977
142 1 H 13.0022 12.618 5.50714
143 1 H 11.5554 13.4756 6.08145
144 1 H 12.1052 14.7098 4.51426
145 2 C 5.13171 17.7013 0.308439
146 2 C 6.03238 16.5843 0.823633
147 4 O 7.17843 16.5326 0.0129769
148 1 H 4.42327 -0.594441 1.08889
149 1 H 5.79905 -0.0234471 0.276908
150 1 H 4.6319 17.3573 -0.550947
151 1 H 5.38942 15.6541 0.595527
152 1 H 6.28955 16.7724 1.83624
153 1 H 7.82109 15.8718 0.331843
154 2 C 0.827425 1.29579 16.6411
155 2 C -0.349058 0.904084 15.7436
156 4 O -0.738246 1.91144 14.808
157 1 H 0.521555 2.11462 17.3013
158 1 H 1.19759 0.492353 17.2553
159 1 H 1.59957 1.71715 15.989
160 1 H 17.3712 0.647449 16.358
161 1 H -0.165257 -0.0213554 15.2054
162 1 H -0.215872 2.71456 14.9442
163 2 C 17.4565 9.73897 6.38776
164 2 C -0.723743 8.43123 5.6392
165 4 O -0.216118 7.41697 6.48498
166 1 H -0.290925 10.1256 6.97069
167 1 H 16.9581 10.4672 5.76059
168 1 H 16.718 9.41587 7.10281
169 1 H 0.0215422 8.70505 4.84245
170 1 H 16.9669 8.04388 5.17538
171 1 H -0.0496886 7.71233 7.38842
172 2 C 13.612 9.60186 2.40839
173 2 C 12.4343 8.60883 2.44094
174 4 O 11.3252 9.18226 1.75415
175 1 H 14.1692 9.30615 1.5169
176 1 H 13.2198 10.6269 2.4541
177 1 H 14.2437 9.3702 3.28895
178 1 H 12.1504 8.48869 3.50077
179 1 H 12.7346 7.64286 2.04344
180 1 H 11.3386 9.19175 0.806816
181 2 C -0.693258 2.21646 3.57653
182 2 C -0.911834 3.36671 2.50871
183 4 O -0.553897 4.64962 3.10585
184 1 H 17.1558 2.44174 4.35768
185 1 H 17.701 1.18104 3.16085
186 1 H 0.340433 2.39058 3.84082
187 1 H 16.6711 3.4361 2.18248
188 1 H -0.166687 3.1632 1.7185
189 1 H -0.451473 5.29947 2.41014
190 2 C 7.55579 -0.220595 8.40868
191 2 C 6.76483 0.996073 7.89429
192 4 O 6.12926 1.69857 8.94942
193 1 H 8.05914 -0.63085 7.53626
194 1 H 8.3761 0.0941794 9.05801
195 1 H 6.9774 17.6518 8.95392
196 1 H 5.93687 0.567556 7.2851
197 1 H 7.35904 1.68493 7.3171
198 1 H 6.85375 1.99869 9.50017
199 2 C 10.9658 16.299 15.8276
200 2 C 10.1767 15.889 14.6014
201 4 O 10.5846 14.6302 13.9257
202 1 H 10.3942 16.8996 16.5516
203 1 H 11.1489 15.3937 16.4066
204 1 H 11.9394 16.7802 15.6716
205 1 H 10.1678 16.6702 13.8168
206 1 H 9.15144 15.7408 14.9708
207 1 H 11.4424 14.3859 14.246
208 2 C 7.23729 8.91379 1.78963
209 2 C 6.11032 9.90597 1.97996
210 4 O 4.82108 9.40901 1.78814
211 1 H 7.36422 8.50885 0.799909
212 1 H 8.1132 9.52911 2.00127
213 1 H 7.20793 8.09228 2.50647
214 1 H 6.17192 10.7688 1.27324
215 1 H 6.2958 10.2725 2.9979
216 1 H 4.44725 8.84926 2.48758
217 2 C -0.0786093 8.28794 14.3253
218 2 C 16.9857 8.42424 14.3411
219 4 O 16.4206 9.06317 13.1932
220 1 H 0.153597 7.5168 13.6494
221 1 H 0.48536 9.15768 14.0327
222 1 H 0.324352 8.00256 15.2976
223 1 H 16.6806 8.96777 15.3039
224 1 H 16.5438 7.40674 14.4814
225 1 H 15.4673 8.9751 13.2468
226 2 C 14.4289 4.00079 5.17645
227 2 C 14.9232 5.29053 4.5447
228 4 O 16.17 5.80146 5.18129
229 1 H 15.0657 3.13865 4.88257
230 1 H 14.4292 3.98796 6.26698
231 1 H 13.4216 3.77004 4.86874
232 1 H 14.2166 6.14354 4.4884
233 1 H 15.1454 5.06832 3.47461
234 1 H 16.8307 5.61255 4.50245
235 2 C 1.2124 17.146 1.41704
236 2 C 0.438293 15.9006 1.92893
237 4 O 17.6423 16.152 2.32553
238 1 H 0.658405 17.4592 0.595152
239 1 H 1.18335 -0.718536 2.19016
240 1 H 2.25158 16.925 1.0763
241 1 H 0.998872 15.5647 2.78235
242 1 H 0.442526 15.1759 1.11872
243 1 H 0.455658 4.62555 5.33973
244 2 C 13.3021 16.9757 7.30155
245 2 C 11.9139 17.5595 6.93207
246 4 O 11.5639 16.7978 5.78936
247 1 H 13.8371 17.3302 8.27509
248 1 H 13.2535 15.9571 7.47638
249 1 H 14.0054 17.132 6.49413
250 1 H 12.1539 -0.0186107 6.5817
251 1 H 11.2515 17.5755 7.77553
252 1 H 10.6545 16.9687 5.55055
253 2 C 1.93144 5.49664 -0.171875
254 2 C 0.439886 5.35888 -0.455628
255 4 O -0.00404293 6.42758 17.3005
256 1 H 2.30231 4.61127 0.362966
257 1 H 2.40902 5.60104 17.4652
258 1 H 2.20585 6.34502 0.492685
259 1 H -0.0793511 5.37692 0.481298
260 1 H 0.222459 4.42978 -0.945191
261 1 H 17.6903 6.15122 17.148
262 2 C 17.4062 13.2136 4.62884
263 2 C -0.293057 12.291 3.84001
264 4 O 1.01806 12.8651 3.55733
265 1 H -0.88193 13.4597 5.63944
266 1 H 17.2994 14.1765 4.08207
267 1 H 16.4152 12.74 4.74095
268 1 H -0.886228 12.0336 2.90953
269 1 H -0.144843 11.3694 4.40476
270 1 H 1.66925 12.3048 3.05711
271 2 C 14.9885 1.80318 -0.635859
272 2 C 15.616 3.08391 17.2852
273 4 O 14.5879 3.96798 16.857
274 1 H 14.3395 1.21666 17.3062
275 1 H 15.7822 1.13418 -0.326944
276 1 H 14.485 2.1401 0.27071
277 1 H 16.1951 2.71124 16.4685
278 1 H 16.2837 3.57427 17.9906
279 1 H 14.9517 4.82093 17.1076
280 2 C 11.7656 1.35228 10.8004
281 2 C 10.3071 1.04714 10.9347
282 4 O 9.62622 1.80711 9.97594
283 1 H 11.9671 2.40431 10.8945
284 1 H 12.3169 0.748698 11.511
285 1 H 11.9246 1.0927 9.73975
286 1 H 9.95534 1.26442 11.948
287 1 H 10.0769 0.0170337 10.6773
288 1 H 8.79856 2.02995 10.3892
289 2 C 7.07734 5.28702 10.8875
290 2 C 7.68027 4.29538 11.8404
291 4 O 7.20949 2.94961 11.6677
292 1 H 5.98229 5.26536 10.9172
293 1 H 7.31232 6.28914 11.2301
294 1 H 7.43402 5.16969 9.88021
295 1 H 7.46189 4.55696 12.8793
296 1 H 8.74453 4.1596 11.7455
297 1 H 6.27261 3.04203 11.4999
298 2 C 12.8367 8.23469 6.78012
299 2 C 12.7727 9.42222 7.74172
300 4 O 11.4788 9.97604 7.9217
301 1 H 13.8685 7.91507 6.70804
302 1 H 12.2196 7.44673 7.19116
303 1 H 12.3999 8.47487 5.80778
304 1 H 13.4242 10.2746 7.45651
305 1 H 13.1101 9.0777 8.75307
306 1 H 10.9989 9.39669 8.56922
307 2 C 11.3456 10.3504 14.6475
308 2 C 12.7372 9.93452 15.1375
309 4 O 13.4867 9.39966 13.9958
310 1 H 10.6848 9.57471 14.3342
311 1 H 10.9176 10.9195 15.4618
312 1 H 11.4592 10.991 13.8023
313 1 H 12.6788 9.16793 15.9134
314 1 H 13.3271 10.7259 15.5742
315 1 H 13.4034 10.0771 13.3111
316 2 C 4.48824 11.2299 8.91897
317 2 C 3.43007 11.3851 7.82681
318 4 O 2.66928 12.6021 7.97708
319 1 H 5.35642 11.8761 8.77597
320 1 H 4.04752 11.5167 9.86192
321 1 H 4.86135 10.2095 9.0045
322 1 H 2.68729 10.5568 7.88662
323 1 H 3.94564 11.3482 6.88603
324 1 H 2.15124 12.7188 7.17119
325 2 C 0.972696 0.060839 10.3989
326 2 C -0.150993 0.522942 11.3254
327 4 O -0.0997612 -0.0377908 12.6145
328 1 H 1.09493 17.6135 10.6872
329 1 H 0.825288 0.202165 9.32068
330 1 H 1.92601 0.572971 10.5856
331 1 H 17.4607 0.278622 10.8831
332 1 H -0.152682 1.60804 11.4337
333 1 H -0.418394 0.624926 13.2253
334 2 C 2.02317 4.88904 13.1493
335 2 C 1.80307 3.84536 14.2994
336 4 O 0.804024 4.34233 15.2284
337 1 H 2.99003 4.73042 12.6185
338 1 H 1.18031 4.81997 12.4105
339 1 H 2.08677 5.91717 13.5304
340 1 H 2.73963 3.80767 14.8558
341 1 H 1.53912 2.89706 13.812
342 1 H 0.792929 5.30602 15.2924
343 2 C 7.27751 13.3411 15.8133
344 2 C 6.21539 13.5719 16.8399
345 4 O 6.52377 12.8717 -0.535318
346 1 H 7.07355 14.0237 14.9518
347 1 H 8.19698 13.806 16.2464
348 1 H 7.3425 12.2954 15.7158
349 1 H 5.33795 13.1201 16.4006
350 1 H 5.98427 14.6091 17.0623
351 1 H 7.32743 13.2598 -0.190847
352 2 C 3.54744 0.535188 12.9605
353 2 C 4.5128 1.45992 12.2377
354 4 O 4.08422 2.26501 11.0353
355 1 H 3.23731 -0.269314 12.324
356 1 H 4.05271 0.165029 13.8599
357 1 H 2.61572 1.05362 13.2177
358 1 H 5.30315 0.778959 11.93
359 1 H 4.93776 2.13156 12.9815
360 1 H 4.53166 1.80324 10.3273
361 2 C 9.74576 14.4021 8.81859
362 2 C 10.0121 15.3161 9.97264
363 4 O 10.6613 14.5528 10.9882
364 1 H 9.66479 13.3923 9.21513
365 1 H 8.76381 14.5726 8.35586
366 1 H 10.5988 14.3699 8.12174
367 1 H 9.15275 15.7862 10.3754
368 1 H 10.7236 16.0975 9.74182
369 1 H 10.2163 14.5749 11.861
370 2 C 13.3675 7.45532 10.9088
371 2 C 12.3151 6.8467 9.9354
372 4 O 11.1055 6.60958 10.6323
373 1 H 13.2717 7.13687 11.9319
374 1 H 14.3531 7.08394 10.5216
375 1 H 13.3284 8.51738 10.995
376 1 H 12.7376 5.90631 9.55615
377 1 H 12.1481 7.50505 9.13867
378 1 H 10.4898 6.28218 9.97775
379 2 C 0.953098 8.18492 2.6241
380 2 C 1.89729 7.30711 3.46905
381 4 O 3.20116 7.21727 2.93327
382 1 H 1.16104 8.01143 1.5592
383 1 H -0.110838 7.99867 2.8185
384 1 H 1.25289 9.22771 2.77064
385 1 H 1.54435 6.28937 3.61163
386 1 H 1.99707 7.71564 4.48542
387 1 H 3.20016 6.68596 2.13933
388 2 C 12.8917 11.6972 10.654
389 2 C 13.9838 12.6892 10.9648
390 4 O 13.6687 14.0116 10.7998
391 1 H 12.53 11.8978 9.64722
392 1 H 13.2699 10.6656 10.7155
393 1 H 12.0878 11.7725 11.3576
394 1 H 14.7893 12.4787 10.2615
395 1 H 14.4223 12.5319 11.9498
396 1 H 12.7028 14.12 10.8337
397 2 C 1.13097 12.378 12.7943
398 2 C 2.45985 12.0522 12.0758
399 4 O 2.47544 10.7951 11.4845
400 1 H 0.68574 11.4665 13.2097
401 1 H 1.28457 13.1266 13.5804
402 1 H 0.412452 12.7473 12.1068
403 1 H 3.35404 12.1468 12.7177
404 1 H 2.50143 12.8526 11.3245
405 1 H 1.81255 10.2213 11.8646
406 2 C 2.71787 10.4117 16.5823
407 2 C 3.89507 10.4682 17.4802
408 4 O 4.98638 10.3993 16.6166
409 1 H 2.65283 11.1399 15.7879
410 1 H 2.8442 9.49505 15.982
411 1 H 1.7689 10.2777 17.0741
412 1 H 4.09098 9.60414 -0.460604
413 1 H 3.84461 11.3394 -0.435296
414 1 H 5.7604 10.5862 17.1587
415 2 C 9.95443 6.40821 5.21765
416 2 C 9.279 6.99634 6.43506
417 4 O 9.86305 6.5141 7.64851
418 1 H 10.2823 5.3957 5.41285
419 1 H 9.26426 6.34762 4.36856
420 1 H 10.8492 6.96231 4.96533
421 1 H 8.20874 6.74877 6.34275
422 1 H 9.37131 8.13142 6.38508
423 1 H 9.53587 7.04412 8.37657
424 2 C 3.45509 14.1493 1.64633
425 2 C 4.21264 12.8505 1.89729
426 4 O 3.23357 11.7738 2.15359
427 1 H 2.97658 14.1838 0.665928
428 1 H 2.68245 14.1875 2.46695
429 1 H 4.21399 14.9052 1.60056
430 1 H 4.93208 12.9495 2.71867
431 1 H 4.72769 12.5758 0.947722
432 1 H 3.71704 10.9369 2.08759
433 2 C 1.61402 3.84233 8.24391
434 2 C 0.349291 3.90768 7.21881
435 4 O 0.631296 4.91081 6.23529
436 1 H 2.00473 4.84965 8.50132
437 1 H 1.53638 3.28233 9.17645
438 1 H 2.41601 3.3294 7.72943
439 1 H -0.554175 4.18815 7.81387
440 1 H 0.221468 2.93043 6.7479
441 1 H 0.213072 5.80305 6.35053
442 2 C 13.6884 7.09195 17.4295
443 2 C 15.1409 7.4216 17.5216
444 4 O 15.9495 6.57931 16.7641
445 1 H 13.0145 7.37311 -0.338282
446 1 H 13.2791 7.6616 16.5953
447 1 H 13.62 6.01966 17.3216
448 1 H 15.3939 7.18877 -0.0649439
449 1 H 15.3043 8.49056 17.3656
450 1 H 15.5185 6.43863 15.8494
ITEM: TIMESTEP
7600
ITEM: NUMBER OF ATOMS
450
ITEM: BOX BOUNDS pp pp pp
-8.6681263281064780e-01 1.7791812632810498e+01
-8.6681263281064780e-01 1.7791812632810498e+01
-8.6681263281064780e-01 1.7791812632810498e+01
ITEM: ATOMS id type element x y z
1 2 C 6.51187 4.61835 15.157
2 2 C 5.69382 3.41842 15.4362
3 4 O 6.10479 3.07986 16.8038
4 1 H 6.48264 5.31122 15.9831
5 1 H 7.56424 4.37545 15.0087
6 1 H 6.07959 5.16699 14.2986
7 1 H 5.88518 2.60594 14.7425
8 1 H 4.65521 3.73382 15.4729
9 1 H 5.6487 2.31366 17.1218
10 2 C 10.4736 12.6295 0.860826
11 2 C 11.8374 13.3026 1.09053
12 4 O 12.3683 13.9157 -0.131436
13 1 H 10.5416 11.731 0.22052
14 1 H 10.1485 12.3828 1.89908
15 1 H 9.78413 13.3175 0.365618
16 1 H 12.4893 12.4907 1.48182
17 1 H 11.725 14.1192 1.85561
18 1 H 12.9961 14.5764 0.149125
19 2 C 9.8841 6.77768 -0.102109
20 2 C 9.66994 7.83659 17.5286
21 4 O 10.5599 8.93764 17.7292
22 1 H 9.71145 6.89932 0.970451
23 1 H 9.49 5.85355 -0.441459
24 1 H 10.9512 6.58638 -0.100778
25 1 H 8.7332 8.33435 -1.21011
26 1 H 9.89814 7.40575 16.5539
27 1 H 10.2589 9.61284 17.0978
28 2 C 17.1112 7.07233 10.7373
29 2 C -0.550525 8.26104 10.5384
30 4 O 0.207165 7.83257 9.39525
31 1 H 17.6474 6.14327 10.7249
32 1 H 16.4492 7.34128 11.5863
33 1 H 16.4359 6.98512 9.88985
34 1 H 0.0761232 8.41661 11.3875
35 1 H 17.608 9.19889 10.3832
36 1 H 1.08247 8.22103 9.47505
37 2 C 1.88182 16.2343 15.2087
38 2 C 2.98676 15.317 14.8226
39 4 O 4.14815 15.6108 14.7716
40 1 H 2.2492 17.1434 15.5429
41 1 H 1.21197 16.4785 14.3658
42 1 H 1.29536 15.7595 15.9473
43 1 H 2.69743 14.2724 14.809
44 1 H 17.3383 16.8619 2.01634
45 1 H 4.39713 3.91884 8.63742
46 2 C 7.95893 13.9166 5.2068
47 2 C 6.97502 12.8004 5.27296
48 4 O 7.47933 11.735 4.48106
49 1 H 7.61727 14.8016 5.76569
50 1 H 8.89865 13.6066 5.63599
51 1 H 8.17778 14.245 4.19696
52 1 H 6.0166 13.0504 4.82375
53 1 H 6.81716 12.4687 6.30653
54 1 H 8.41329 11.6195 4.68655
55 2 C 16.6081 5.04056 13.6834
56 2 C 15.1546 4.99006 13.4859
57 4 O 14.5345 5.87517 14.3245
58 1 H 16.6902 5.14396 14.7756
59 1 H 17.1222 4.16467 13.3049
60 1 H 17.0547 5.95946 13.3494
61 1 H 14.7474 4.06873 13.7864
62 1 H 14.8105 5.28333 12.5158
63 1 H 13.6119 5.91229 14.1049
64 2 C 8.44622 10.4754 8.27034
65 2 C 9.02868 10.2061 9.65083
66 4 O 9.45982 8.79252 9.70455
67 1 H 8.12466 9.5006 7.82155
68 1 H 7.62387 11.17 8.25141
69 1 H 9.21908 10.8932 7.6116
70 1 H 8.26135 10.3132 10.4513
71 1 H 9.87716 10.8377 9.86804
72 1 H 9.94598 8.62576 10.5229
73 2 C 4.64267 3.67003 5.90078
74 2 C 5.26503 4.81325 6.6774
75 4 O 6.30662 4.42479 7.51941
76 1 H 4.23509 2.92153 6.58933
77 1 H 3.85427 3.94481 5.20933
78 1 H 5.40598 3.20949 5.25217
79 1 H 4.57521 5.4209 7.21513
80 1 H 5.71536 5.51663 5.97901
81 1 H 6.12014 3.6215 8.01105
82 2 C 6.19656 9.82508 12.2012
83 2 C 6.17994 10.1481 13.7504
84 4 O 4.89133 10.704 14.0984
85 1 H 5.37155 9.03069 12.1259
86 1 H 5.93473 10.7059 11.5655
87 1 H 7.10763 9.38019 11.7638
88 1 H 6.98725 10.8433 13.9685
89 1 H 6.3942 9.21817 14.2961
90 1 H 4.6976 10.5385 15.0363
91 2 C 10.7903 4.76175 14.4
92 2 C 10.808 6.23864 14.0571
93 4 O 11.8828 6.7662 14.6692
94 1 H 11.5219 4.18084 13.8553
95 1 H 11.2406 4.71108 15.3863
96 1 H 9.80352 4.46651 14.4896
97 1 H 9.92957 6.72277 14.5615
98 1 H 10.6275 6.36942 13.0144
99 1 H 12.105 7.61863 14.3671
100 2 C 5.18942 13.9907 11.7552
101 2 C 6.67952 13.958 11.414
102 4 O 7.17141 15.303 11.2722
103 1 H 4.59907 14.5614 11.0847
104 1 H 4.77941 12.9597 11.8564
105 1 H 5.05445 14.4999 12.7103
106 1 H 6.87605 13.5002 10.4783
107 1 H 7.23516 13.478 12.1892
108 1 H 7.07425 15.6809 12.1633
109 2 C 4.33385 15.5298 6.48158
110 2 C 3.86374 15.1257 5.06183
111 4 O 3.43187 13.7487 5.11826
112 1 H 3.49962 15.4634 7.15159
113 1 H 5.04823 14.8118 6.89735
114 1 H 4.68096 16.5597 6.57383
115 1 H 4.66041 15.3007 4.28363
116 1 H 3.05108 15.721 4.6794
117 1 H 2.72471 13.6377 4.46896
118 2 C 5.01631 7.01264 9.50659
119 2 C 3.60207 7.59035 9.12965
120 4 O 2.84755 8.18258 10.2212
121 1 H 4.86411 6.12454 10.1006
122 1 H 5.46819 6.69161 8.55928
123 1 H 5.63347 7.73566 10.0151
124 1 H 3.05409 6.74687 8.76097
125 1 H 3.69704 8.24857 8.26759
126 1 H 3.19293 9.07319 10.4178
127 2 C 6.94755 -0.0720246 14.9159
128 2 C 7.22789 -0.820625 13.6112
129 4 O 6.72338 16.5446 13.6561
130 1 H 7.51717 0.891835 14.9269
131 1 H 5.89813 0.116772 15.0191
132 1 H 7.29874 -0.641372 15.8046
133 1 H 8.2634 17.8157 13.3461
134 1 H 6.70483 -0.268751 12.8078
135 1 H 5.97666 16.4516 14.2468
136 2 C 11.4001 11.8828 5.07137
137 2 C 12.1701 13.1405 5.42357
138 4 O 11.9222 14.1461 4.37559
139 1 H 11.7878 11.5674 4.05705
140 1 H 11.594 11.2197 5.89115
141 1 H 10.3436 12.178 4.98649
142 1 H 13.2177 12.8914 5.48926
143 1 H 11.8903 13.6109 6.43285
144 1 H 12.0879 14.9972 4.79772
145 2 C 5.12513 17.7894 0.0504296
146 2 C 6.2292 16.9274 0.727579
147 4 O 7.18146 16.5307 -0.244548
148 1 H 4.26789 -0.912404 0.762394
149 1 H 5.51501 0.124088 -0.0284461
150 1 H 4.92236 17.3585 -0.99628
151 1 H 5.80769 16.0444 1.21342
152 1 H 6.73056 17.4753 1.56078
153 1 H 8.0876 16.7614 -0.0154122
154 2 C 0.723992 1.03529 16.4702
155 2 C -0.646954 0.858779 15.8453
156 4 O -0.826537 1.77718 14.7419
157 1 H 0.771518 2.0927 16.7277
158 1 H 0.721862 0.451766 17.3804
159 1 H 1.55709 0.821399 15.7972
160 1 H 17.2035 0.97694 16.5927
161 1 H -0.768006 -0.134765 15.3707
162 1 H -0.19834 2.4979 14.9283
163 2 C 17.5405 9.72032 6.6675
164 2 C 17.4986 8.37587 5.97646
165 4 O -0.355969 7.35903 6.63832
166 1 H -0.0732954 10.0246 6.68875
167 1 H 16.9502 10.3969 6.07055
168 1 H 17.2002 9.60439 7.71824
169 1 H -0.697262 8.57559 4.98233
170 1 H 16.4739 7.99182 5.84072
171 1 H -0.295759 7.55451 7.59589
172 2 C 13.8549 9.33515 2.16535
173 2 C 12.5884 8.63202 2.54047
174 4 O 11.4283 9.26417 2.10021
175 1 H 13.8676 9.59536 1.10082
176 1 H 13.791 10.2408 2.76091
177 1 H 14.6947 8.7171 2.42839
178 1 H 12.5336 8.61683 3.6495
179 1 H 12.5623 7.53483 2.3039
180 1 H 11.4126 9.38285 1.1251
181 2 C -0.469882 2.22076 3.51808
182 2 C 17.6429 3.22943 2.56307
183 4 O -0.952514 4.59563 2.95048
184 1 H 17.6782 2.25962 4.42147
185 1 H -0.759724 1.32607 3.01438
186 1 H 0.58465 2.46688 3.54279
187 1 H 16.5661 3.04774 2.42798
188 1 H -0.459702 3.04932 1.66331
189 1 H -0.117319 4.95388 2.69738
190 2 C 7.25913 -0.232361 8.21435
191 2 C 6.87162 1.17233 7.97894
192 4 O 6.19111 1.78309 9.09177
193 1 H 7.54204 -0.824601 7.34562
194 1 H 8.15973 -0.220907 8.82758
195 1 H 6.45498 17.9813 8.81465
196 1 H 6.16992 1.19599 7.16373
197 1 H 7.69187 1.80652 7.6656
198 1 H 6.8753 1.98704 9.71603
199 2 C 10.9635 16.2135 15.7533
200 2 C 10.1442 15.872 14.5519
201 4 O 10.655 14.7775 13.888
202 1 H 10.6799 17.176 16.1648
203 1 H 10.8959 15.4959 16.5567
204 1 H 12.0264 16.2523 15.6073
205 1 H 9.9735 16.712 13.9072
206 1 H 9.15113 15.5923 14.8831
207 1 H 11.5581 14.8892 13.593
208 2 C 7.04699 9.06535 1.30257
209 2 C 5.99264 9.87825 1.96719
210 4 O 4.59735 9.41716 1.81198
211 1 H 6.77412 8.91248 0.243407
212 1 H 8.02305 9.52136 1.25251
213 1 H 7.0812 8.09595 1.7978
214 1 H 5.96788 10.8968 1.68847
215 1 H 6.25591 9.92805 3.00066
216 1 H 4.38266 8.64175 2.3564
217 2 C -0.22156 8.36395 14.1703
218 2 C 16.9974 8.7006 14.3449
219 4 O 16.3897 9.06151 13.0939
220 1 H -0.122875 7.65995 13.3507
221 1 H 0.358041 9.29048 13.9408
222 1 H 0.209107 7.94521 15.096
223 1 H 16.9164 9.45512 15.072
224 1 H 16.4793 7.87452 14.7708
225 1 H 15.4444 9.10824 13.2657
226 2 C 14.5738 3.75594 4.73363
227 2 C 14.9641 5.15431 4.23094
228 4 O 16.045 5.57406 4.95381
229 1 H 15.4069 3.02949 4.62944
230 1 H 14.3632 3.78322 5.80237
231 1 H 13.757 3.28729 4.22313
232 1 H 14.2052 5.92389 4.27114
233 1 H 15.1694 5.12387 3.16991
234 1 H 16.8676 5.35298 4.49861
235 2 C 1.3556 16.9735 1.70949
236 2 C 0.240951 15.8818 1.72824
237 4 O 17.8792 16.2896 2.52754
238 1 H 0.814833 -0.842537 1.16489
239 1 H 1.59352 17.2821 2.73818
240 1 H 2.23854 16.5813 1.19104
241 1 H 0.836244 15.0934 2.14953
242 1 H -0.0169392 15.5409 0.713626
243 1 H 0.315466 4.20056 5.32262
244 2 C 13.3559 16.9103 7.31081
245 2 C 12.0217 17.4507 6.78117
246 4 O 11.4644 16.6719 5.62463
247 1 H 13.9299 17.7105 7.85141
248 1 H 13.115 15.9781 8.02936
249 1 H 14.0051 16.5695 6.56062
250 1 H 12.287 -0.239613 6.3582
251 1 H 11.5195 17.6694 7.74717
252 1 H 10.7198 17.1503 5.23805
253 2 C 1.95516 5.38945 -0.410286
254 2 C 0.358745 5.34131 -0.556454
255 4 O 0.0919226 6.36002 17.1303
256 1 H 2.28807 5.02257 0.562482
257 1 H 2.53226 4.84209 17.4698
258 1 H 2.21153 6.43089 -0.53125
259 1 H -0.170397 5.46021 0.42076
260 1 H -0.00927275 4.35299 17.6855
261 1 H 17.7476 6.34168 17.0372
262 2 C 17.7353 13.5287 4.65821
263 2 C -0.277443 12.3691 3.8931
264 4 O 1.05209 12.7299 3.60068
265 1 H -0.500254 13.5423 5.68334
266 1 H -0.807678 14.4229 4.07937
267 1 H 16.6891 13.4128 4.94655
268 1 H 17.7966 12.3048 3.01315
269 1 H -0.312003 11.4557 4.50504
270 1 H 1.59945 12.008 3.2939
271 2 C 15.3365 1.7933 -0.468907
272 2 C 15.6745 3.2111 17.6208
273 4 O 14.5113 3.61922 16.8649
274 1 H 15.1674 1.12351 17.3327
275 1 H 16.1105 1.30458 0.195862
276 1 H 14.4432 1.98306 0.0615079
277 1 H 16.5373 3.04071 16.9603
278 1 H 15.8766 3.94655 -0.24954
279 1 H 14.9079 4.34407 16.336
280 2 C 11.7128 1.36405 10.9443
281 2 C 10.1891 1.11479 11.0704
282 4 O 9.42899 1.66215 9.99984
283 1 H 11.9815 2.42843 11.0297
284 1 H 12.1842 0.762023 11.7352
285 1 H 11.9543 0.953987 9.96906
286 1 H 9.83423 1.56882 12.0175
287 1 H 9.87672 0.0704434 11.0949
288 1 H 8.8529 2.32035 10.3815
289 2 C 7.28426 5.33256 11.0443
290 2 C 8.1026 4.35819 11.8324
291 4 O 7.45406 3.07831 11.7566
292 1 H 6.2441 5.14448 11.3295
293 1 H 7.48227 6.38195 11.3823
294 1 H 7.38741 5.23077 9.96456
295 1 H 8.3016 4.60833 12.8833
296 1 H 9.06786 4.15159 11.3962
297 1 H 6.50839 3.27246 11.8628
298 2 C 12.7391 8.23763 6.58378
299 2 C 13.0187 9.59016 7.2518
300 4 O 11.7105 10.1722 7.4425
301 1 H 13.4569 7.52438 6.9569
302 1 H 11.7264 7.89148 6.7921
303 1 H 12.8275 8.32964 5.49862
304 1 H 13.5671 10.243 6.62938
305 1 H 13.5681 9.54777 8.16809
306 1 H 11.374 9.73417 8.21583
307 2 C 11.3653 10.5775 14.7044
308 2 C 12.7752 10.0447 14.8962
309 4 O 13.2795 9.17516 13.9064
310 1 H 10.5746 9.82547 14.5376
311 1 H 11.0631 11.256 15.523
312 1 H 11.3474 11.2437 13.7836
313 1 H 12.8543 9.39783 15.7636
314 1 H 13.5534 10.8142 15.0322
315 1 H 13.1428 9.52213 13.0383
316 2 C 4.48367 10.9021 8.47317
317 2 C 3.15625 10.9406 7.71137
318 4 O 2.57492 12.2151 7.76982
319 1 H 5.08548 11.7762 8.16439
320 1 H 4.38803 10.8784 9.55936
321 1 H 5.07439 10.0468 8.14168
322 1 H 2.35894 10.2744 8.02455
323 1 H 3.42488 10.6877 6.65019
324 1 H 3.26165 12.8462 7.79056
325 2 C 0.640499 -0.183018 10.5438
326 2 C -0.239116 0.472914 11.6159
327 4 O 0.0387875 -0.0616906 12.8809
328 1 H 0.414671 17.3871 10.4892
329 1 H 0.357076 0.301665 9.5799
330 1 H 1.63676 0.0823781 10.7123
331 1 H 17.3928 0.221424 11.3705
332 1 H -0.135034 1.56706 11.5455
333 1 H -0.202674 0.598352 13.5701
334 2 C 1.98429 5.35526 13.4933
335 2 C 1.91264 4.13104 14.3394
336 4 O 0.829187 4.17864 15.2754
337 1 H 2.69649 5.25893 12.7152
338 1 H 0.994307 5.58986 13.0726
339 1 H 2.33224 6.22189 14.0343
340 1 H 2.85528 3.90636 14.7717
341 1 H 1.78115 3.34113 13.6094
342 1 H 0.700494 4.91163 15.8913
343 2 C 7.56994 13.3772 15.8663
344 2 C 6.46236 13.2872 16.9619
345 4 O 6.76721 12.5837 -0.494326
346 1 H 7.30613 14.1456 15.2501
347 1 H 8.60455 13.6316 16.2549
348 1 H 7.73726 12.3482 15.5553
349 1 H 5.62617 12.8542 16.4248
350 1 H 6.19195 14.2608 17.3319
351 1 H 7.59271 13.0024 -0.233565
352 2 C 3.19434 0.719896 13.0092
353 2 C 4.43388 1.55506 12.5265
354 4 O 4.15254 2.11432 11.2921
355 1 H 3.2545 -0.195144 12.3902
356 1 H 3.30035 0.327898 14.0122
357 1 H 2.17397 1.14048 12.8203
358 1 H 5.28528 0.863668 12.5444
359 1 H 4.64554 2.38911 13.189
360 1 H 4.67228 1.72805 10.5568
361 2 C 9.75676 14.4699 8.66602
362 2 C 10.1818 15.1544 9.93674
363 4 O 10.7277 14.1944 10.9414
364 1 H 9.03964 13.6479 8.71813
365 1 H 9.20887 15.2168 8.11173
366 1 H 10.6239 14.1447 8.15106
367 1 H 9.37306 15.7075 10.3888
368 1 H 11.0255 15.8345 9.75027
369 1 H 10.0725 14.0203 11.6108
370 2 C 13.1875 7.63042 10.8023
371 2 C 12.3185 6.70411 9.96099
372 4 O 11.0455 6.55119 10.571
373 1 H 13.7096 7.14892 11.6548
374 1 H 13.9259 8.20169 10.1997
375 1 H 12.4477 8.30237 11.2202
376 1 H 12.8362 5.72095 9.89207
377 1 H 12.2141 7.06392 8.92432
378 1 H 10.6252 5.79463 10.1211
379 2 C 1.12758 8.27737 2.6237
380 2 C 1.99793 7.1977 3.21935
381 4 O 3.31967 7.23813 2.68913
382 1 H 1.16422 8.20177 1.55049
383 1 H 0.102467 8.22027 2.97266
384 1 H 1.53701 9.23366 2.91941
385 1 H 1.62737 6.1839 3.00522
386 1 H 2.04807 7.36704 4.26435
387 1 H 3.20323 7.37615 1.73554
388 2 C 13.2012 11.7243 10.6507
389 2 C 14.0248 12.7397 11.4185
390 4 O 13.5287 14.0631 11.0425
391 1 H 13.3796 11.9359 9.60319
392 1 H 13.3994 10.6744 10.9049
393 1 H 12.13 11.8979 10.8595
394 1 H 15.069 12.6748 11.0779
395 1 H 13.9908 12.6664 12.5203
396 1 H 12.585 13.9061 10.9995
397 2 C 0.871921 12.4915 12.8171
398 2 C 2.28454 12.1723 12.3456
399 4 O 2.45917 10.9962 11.519
400 1 H 0.367194 11.6593 13.2921
401 1 H 0.908814 13.3427 13.5562
402 1 H 0.217517 12.8195 11.9894
403 1 H 2.99749 12.0875 13.1588
404 1 H 2.5938 13.0331 11.73
405 1 H 2.59338 10.2314 12.1046
406 2 C 2.65861 10.3939 16.6718
407 2 C 3.88807 10.1249 17.5278
408 4 O 5.09747 10.2669 16.6761
409 1 H 2.56346 11.336 16.1334
410 1 H 2.47183 9.60292 15.9668
411 1 H 1.78287 10.4579 17.3787
412 1 H 4.02373 9.17491 -0.697682
413 1 H 3.80989 10.7641 -0.284203
414 1 H 5.68641 10.8821 17.0867
415 2 C 9.98907 6.36504 5.21388
416 2 C 9.22284 6.83938 6.39846
417 4 O 9.88421 6.48244 7.62297
418 1 H 9.9214 5.29824 5.11296
419 1 H 9.53602 6.83859 4.34445
420 1 H 11.0387 6.63162 5.24938
421 1 H 8.24307 6.43516 6.22695
422 1 H 9.1133 7.88053 6.24744
423 1 H 9.66096 7.1611 8.27245
424 2 C 3.37643 14.099 1.75435
425 2 C 4.31851 12.9616 2.04667
426 4 O 3.50809 11.8251 2.17168
427 1 H 2.79879 13.8019 0.923203
428 1 H 2.70727 14.2547 2.6336
429 1 H 3.88751 15.0772 1.46012
430 1 H 4.76254 13.1292 3.0331
431 1 H 5.01784 12.7461 1.2507
432 1 H 4.01015 11.0357 2.40602
433 2 C 1.64244 3.71957 8.20389
434 2 C 0.466891 3.67383 7.31523
435 4 O 0.472461 4.60933 6.17082
436 1 H 2.14668 4.6622 8.1453
437 1 H 1.37654 3.54758 9.2553
438 1 H 2.44064 3.07198 7.81004
439 1 H -0.315563 4.00265 8.03175
440 1 H 0.48447 2.68589 6.93453
441 1 H 0.14255 5.51816 6.25358
442 2 C 13.5989 7.4578 17.6575
443 2 C 15.1201 7.74011 17.5118
444 4 O 15.8606 6.75746 16.7716
445 1 H 13.1276 8.42724 -0.959143
446 1 H 13.0982 6.94567 16.7902
447 1 H 13.3292 6.96081 -0.0764356
448 1 H 15.5349 7.89027 -0.152735
449 1 H 15.1661 8.70961 17.0036
450 1 H 15.2046 6.61195 16.1008
ITEM: TIMESTEP
7700
ITEM: NUMBER OF ATOMS
450
ITEM: BOX BOUNDS pp pp pp
-8.9932437692393030e-01 1.7824324376923784e+01
-8.9932437692393030e-01 1.7824324376923784e+01
-8.9932437692393030e-01 1.7824324376923784e+01
ITEM: ATOMS id type element x y z
1 2 C 6.31521 4.88491 15.2846
2 2 C 5.64565 3.54732 15.5666
3 4 O 5.55458 3.14882 16.901
4 1 H 5.71275 5.70673 15.6958
5 1 H 7.31256 4.95287 15.7043
6 1 H 6.43942 5.02434 14.2276
7 1 H 6.10047 2.74334 14.9444
8 1 H 4.60381 3.62048 15.2042
9 1 H 5.29143 2.24266 16.9523
10 2 C 10.2946 13.3531 0.941962
11 2 C 11.7328 13.6217 1.3225
12 4 O 12.4163 13.9447 0.120187
13 1 H 10.2544 12.4823 0.303213
14 1 H 9.67667 13.2096 1.83856
15 1 H 9.80811 14.1817 0.423812
16 1 H 12.1394 12.7546 1.82673
17 1 H 11.834 14.455 1.97422
18 1 H 13.2986 14.2322 0.366474
19 2 C 9.57016 7.01286 0.0299582
20 2 C 9.68721 7.75977 17.4265
21 4 O 10.3445 9.01729 17.7167
22 1 H 9.22197 7.68872 0.825676
23 1 H 8.8335 6.20938 0.0406931
24 1 H 10.5329 6.53526 0.318736
25 1 H 8.71863 8.04627 16.9683
26 1 H 10.2213 7.18019 16.6752
27 1 H 10.8005 9.24449 16.879
28 2 C 17.2429 6.88815 10.5648
29 2 C -0.51253 8.03209 10.3594
30 4 O 0.279582 7.88816 9.14017
31 1 H 17.8384 5.99453 10.7646
32 1 H 16.5532 7.19441 11.361
33 1 H 16.6399 6.72309 9.65928
34 1 H 0.196249 8.15901 11.2085
35 1 H 17.6823 8.99724 10.2685
36 1 H 0.960784 7.20849 9.27654
37 2 C 1.6957 16.2037 15.2173
38 2 C 2.7854 15.3586 14.5834
39 4 O 4.02335 15.537 14.6732
40 1 H 2.23896 16.9184 15.8852
41 1 H 1.01375 16.76 14.5242
42 1 H 1.10078 15.6361 15.96
43 1 H 2.42858 14.4457 13.9364
44 1 H 17.5366 17.2153 2.41786
45 1 H 4.35025 3.93237 9.0079
46 2 C 7.87854 14.103 5.11308
47 2 C 7.13473 12.7541 5.18252
48 4 O 7.63843 11.6348 4.4117
49 1 H 7.28242 14.9002 5.55134
50 1 H 8.84464 14.0267 5.59472
51 1 H 8.04344 14.4035 4.06879
52 1 H 6.1289 12.9357 4.80822
53 1 H 7.06967 12.414 6.21994
54 1 H 8.53115 11.4704 4.71918
55 2 C 16.7813 5.13806 13.7327
56 2 C 15.2664 4.92052 13.7093
57 4 O 14.5782 5.94229 14.5779
58 1 H 17.2226 4.6689 14.6151
59 1 H 17.1123 4.72707 12.8042
60 1 H 17.063 6.26575 13.7524
61 1 H 14.9879 3.89579 14.1334
62 1 H 14.8826 5.048 12.6614
63 1 H 13.5897 5.8812 14.5123
64 2 C 8.58921 10.709 8.07945
65 2 C 9.33926 10.2988 9.31721
66 4 O 9.51887 8.89852 9.16058
67 1 H 7.63877 10.2564 7.98742
68 1 H 8.3254 11.7762 8.18186
69 1 H 9.2333 10.602 7.2257
70 1 H 8.85851 10.5151 10.2584
71 1 H 10.3181 10.7934 9.32924
72 1 H 10.0303 8.47828 9.88084
73 2 C 4.56463 3.4132 5.82341
74 2 C 5.06902 4.69047 6.54623
75 4 O 6.225 4.4886 7.37466
76 1 H 4.35243 2.62058 6.54079
77 1 H 3.70984 3.6221 5.17886
78 1 H 5.32047 3.10818 5.09032
79 1 H 4.29856 5.14422 7.22047
80 1 H 5.34457 5.44741 5.81527
81 1 H 6.00013 3.81325 8.02614
82 2 C 6.05089 9.79285 12.1694
83 2 C 6.22092 10.0241 13.6613
84 4 O 5.04496 10.7327 14.1189
85 1 H 5.12054 9.28379 12.0024
86 1 H 6.01849 10.7424 11.6593
87 1 H 6.85062 9.20898 11.801
88 1 H 7.21848 10.3595 13.9334
89 1 H 6.16884 8.99627 14.0305
90 1 H 5.07462 10.7263 15.0845
91 2 C 10.7002 4.64207 14.4404
92 2 C 10.6593 6.15093 14.3943
93 4 O 11.9496 6.6636 14.969
94 1 H 11.7094 4.41585 14.0795
95 1 H 10.6174 4.35179 15.5577
96 1 H 9.89453 4.18937 13.8711
97 1 H 9.91989 6.69685 14.9114
98 1 H 10.611 6.32745 13.2976
99 1 H 12.2119 7.46325 14.4102
100 2 C 5.17603 13.7117 11.7598
101 2 C 6.53476 13.8333 11.1199
102 4 O 7.18208 15.0904 11.2954
103 1 H 4.46793 14.5181 11.4834
104 1 H 4.78858 12.7067 11.5611
105 1 H 5.29474 13.7241 12.856
106 1 H 6.42819 13.7643 10.0119
107 1 H 7.22992 13.0348 11.5122
108 1 H 7.4303 15.2627 12.2058
109 2 C 4.42768 15.3147 6.62538
110 2 C 3.69257 15.1606 5.3401
111 4 O 3.26698 13.8038 5.28875
112 1 H 3.72843 15.3753 7.48686
113 1 H 5.13181 14.466 6.79617
114 1 H 4.95558 16.2408 6.69335
115 1 H 4.42741 15.358 4.566
116 1 H 2.85665 15.8767 5.22196
117 1 H 2.61927 13.7152 4.58204
118 2 C 5.03188 7.48839 9.53599
119 2 C 3.56757 7.49791 9.24369
120 4 O 2.89436 7.85804 10.4422
121 1 H 5.15563 7.00901 10.4905
122 1 H 5.63517 6.99929 8.75723
123 1 H 5.3215 8.55968 9.64082
124 1 H 3.21134 6.48692 8.92684
125 1 H 3.33756 8.10864 8.42114
126 1 H 2.773 8.81608 10.4401
127 2 C 6.9275 0.143402 14.8
128 2 C 7.21236 -0.781727 13.6489
129 4 O 7.02295 16.4871 13.7827
130 1 H 7.26344 1.17785 14.5295
131 1 H 5.88791 0.066125 15.1194
132 1 H 7.54306 -0.0298454 15.6404
133 1 H 8.25447 -0.652972 13.3364
134 1 H 6.60391 -0.451002 12.8285
135 1 H 6.08176 16.2537 13.7582
136 2 C 11.6052 12.1305 4.77266
137 2 C 12.2827 13.3935 5.4053
138 4 O 11.9455 14.4573 4.56378
139 1 H 11.7525 12.1383 3.71598
140 1 H 12.1225 11.316 5.1982
141 1 H 10.6125 12.1593 5.10429
142 1 H 13.399 13.1881 5.43928
143 1 H 11.9934 13.5666 6.40596
144 1 H 12.2967 15.2302 5.01728
145 2 C 5.18025 17.8224 -0.176557
146 2 C 6.39536 17.2384 0.493459
147 4 O 7.35874 16.6466 -0.459986
148 1 H 4.58277 -0.517416 0.59109
149 1 H 5.52068 -0.265403 -1.01166
150 1 H 4.70886 17.0421 18.0136
151 1 H 6.19922 16.5654 1.30164
152 1 H 7.00215 17.9802 1.03295
153 1 H 7.70601 17.4025 -0.91236
154 2 C 0.665848 0.686491 16.409
155 2 C -0.795408 1.0305 16.0535
156 4 O -0.914747 1.67847 14.7724
157 1 H 1.19104 1.59105 16.6991
158 1 H 0.536933 -0.00836092 17.2688
159 1 H 1.16582 0.150558 15.6174
160 1 H 17.5284 1.67494 16.7999
161 1 H 17.3556 0.123491 16.0192
162 1 H -0.20982 2.34214 14.8049
163 2 C 17.6667 9.50381 6.96094
164 2 C 17.2407 8.04527 6.54848
165 4 O -0.372219 7.20594 6.70063
166 1 H -0.285542 9.78048 6.25688
167 1 H 16.8194 10.1193 6.63686
168 1 H 17.9821 9.60524 7.99748
169 1 H 16.981 8.09275 5.53803
170 1 H 16.3726 7.65642 7.08479
171 1 H -0.147194 7.34891 7.62154
172 2 C 14.0105 9.15534 1.89834
173 2 C 12.6562 8.5621 2.4871
174 4 O 11.5238 9.44068 2.46193
175 1 H 13.9315 9.70145 0.971312
176 1 H 14.2646 9.94114 2.60826
177 1 H 14.7906 8.39033 1.92081
178 1 H 12.8012 8.30991 3.51166
179 1 H 12.3244 7.6196 2.07655
180 1 H 11.1183 9.30999 1.59721
181 2 C -0.217935 2.2638 3.49987
182 2 C 17.5546 3.12032 2.49888
183 4 O 17.8124 4.45931 2.85149
184 1 H -0.554533 2.50167 4.56234
185 1 H -0.37492 1.25366 3.17755
186 1 H 0.798774 2.71136 3.37116
187 1 H 16.4741 2.89895 2.62141
188 1 H -1.01708 2.8614 1.42316
189 1 H 0.0311922 4.58735 2.80827
190 2 C 6.88567 -0.250477 8.16024
191 2 C 6.80867 1.31 8.05821
192 4 O 6.3188 1.93146 9.25477
193 1 H 7.52088 -0.653759 7.36681
194 1 H 7.34685 -0.592482 9.08992
195 1 H 5.91563 -0.76153 8.05793
196 1 H 6.17907 1.5677 7.22306
197 1 H 7.81997 1.72394 7.80211
198 1 H 7.14776 2.04002 9.7544
199 2 C 10.9613 16.1402 15.7373
200 2 C 10.2294 15.9464 14.4219
201 4 O 10.6754 14.7168 13.7914
202 1 H 10.5884 17.0126 16.282
203 1 H 10.9729 15.2602 16.4168
204 1 H 12.0467 16.3734 15.6218
205 1 H 10.4887 16.7981 13.7518
206 1 H 9.14924 15.9269 14.4972
207 1 H 11.4599 14.913 13.2474
208 2 C 6.83601 9.04089 0.824239
209 2 C 6.12979 9.81399 1.97179
210 4 O 4.76155 9.47364 1.85576
211 1 H 6.4794 9.38065 -0.146484
212 1 H 7.91466 9.18705 0.723462
213 1 H 6.66813 7.96458 0.818968
214 1 H 6.19048 10.9126 1.99662
215 1 H 6.47988 9.50068 2.97959
216 1 H 4.60644 8.58703 2.1837
217 2 C -0.348741 8.58262 13.9852
218 2 C 16.9549 9.02408 14.4431
219 4 O 16.2336 9.22972 13.2629
220 1 H -0.272259 7.56202 13.5067
221 1 H -0.0221162 9.34198 13.2806
222 1 H 0.245194 8.61998 14.8777
223 1 H 17.151 10.0017 15.028
224 1 H 16.4717 8.26667 15.0529
225 1 H 15.2801 9.21416 13.4117
226 2 C 14.5746 3.48834 4.26844
227 2 C 14.7878 4.92254 4.03336
228 4 O 15.8707 5.56303 4.74641
229 1 H 15.4346 2.88465 4.36729
230 1 H 14.0442 3.42114 5.21986
231 1 H 13.9449 2.98907 3.48035
232 1 H 13.9092 5.50725 4.38161
233 1 H 14.9478 5.05816 2.94284
234 1 H 16.6904 5.15651 4.43751
235 2 C 1.48089 16.7684 1.86793
236 2 C 0.119261 16.0788 1.63697
237 4 O -0.815264 16.3868 2.70522
238 1 H 1.36959 -0.886232 2.12459
239 1 H 1.98639 16.3584 2.74256
240 1 H 2.03221 16.5738 0.98426
241 1 H 0.492153 15.0657 1.57263
242 1 H -0.297745 16.2549 0.652317
243 1 H -0.489831 4.47272 5.63776
244 2 C 13.2134 16.7162 7.27044
245 2 C 12.1281 17.5386 6.53828
246 4 O 11.4449 16.6674 5.79056
247 1 H 13.6704 17.2869 8.00082
248 1 H 12.8315 15.76 7.50087
249 1 H 14.0516 16.5419 6.49926
250 1 H 12.4291 -0.23405 6.05468
251 1 H 11.6593 -0.821303 7.41647
252 1 H 10.7603 17.0328 5.21536
253 2 C 1.77071 5.25911 -0.537622
254 2 C 0.386462 5.69142 -0.551737
255 4 O -0.0305634 6.05626 16.8449
256 1 H 1.89708 4.59818 0.318387
257 1 H 2.08064 4.61885 17.3567
258 1 H 2.40334 6.13812 -0.597534
259 1 H 0.152764 6.48596 0.125103
260 1 H -0.258282 4.87467 -0.216291
261 1 H 17.8168 6.35919 16.9521
262 2 C -0.611393 13.6333 4.75701
263 2 C -0.0899699 12.5413 3.85666
264 4 O 1.26548 12.7973 3.77035
265 1 H 0.152369 13.678 5.55466
266 1 H -0.744226 14.5943 4.30421
267 1 H 17.1955 13.3808 5.2708
268 1 H -0.643143 12.6327 2.89811
269 1 H -0.311296 11.5614 4.3134
270 1 H 1.69987 12.1834 3.17672
271 2 C 15.5855 1.93913 -0.251005
272 2 C 15.5544 3.31983 17.8641
273 4 O 14.6086 3.33774 16.8552
274 1 H 15.6401 1.19076 17.6816
275 1 H 16.5284 1.98103 0.259299
276 1 H 14.7408 1.70262 0.419023
277 1 H 16.5936 3.54489 17.5507
278 1 H 15.3012 4.13722 -0.146192
279 1 H 14.3429 4.25779 16.7256
280 2 C 11.5568 1.35337 10.9963
281 2 C 10.0881 1.00967 11.2585
282 4 O 9.30054 1.66399 10.2005
283 1 H 11.5947 2.44064 10.9763
284 1 H 12.1119 0.978342 11.8469
285 1 H 11.9155 0.852238 10.1302
286 1 H 9.83174 1.33771 12.2487
287 1 H 9.76407 -0.0383858 11.1854
288 1 H 8.70127 2.33115 10.5618
289 2 C 7.60649 5.47181 11.0922
290 2 C 8.39754 4.34432 11.7321
291 4 O 7.75318 3.04096 11.6978
292 1 H 7.03068 5.94655 11.8605
293 1 H 8.24761 6.1709 10.5972
294 1 H 6.88856 5.03473 10.399
295 1 H 8.60187 4.56182 12.7597
296 1 H 9.37978 4.25754 11.2359
297 1 H 6.81771 3.20254 11.8723
298 2 C 12.9557 8.22117 6.43865
299 2 C 13.1507 9.5966 6.9751
300 4 O 12.0005 10.2493 7.52029
301 1 H 13.8295 7.82711 5.88824
302 1 H 12.7221 7.53431 7.26775
303 1 H 12.095 8.27255 5.77644
304 1 H 13.4439 10.2429 6.10064
305 1 H 14.029 9.66099 7.65456
306 1 H 11.2673 9.6582 7.58556
307 2 C 11.5474 10.8068 14.7025
308 2 C 12.8784 10.2282 14.6869
309 4 O 12.9381 9.1338 13.6746
310 1 H 10.8786 9.99518 14.9406
311 1 H 11.4114 11.5321 15.4782
312 1 H 11.2357 11.329 13.8274
313 1 H 13.148 9.77299 15.6151
314 1 H 13.6788 10.8747 14.351
315 1 H 13.0002 9.63795 12.851
316 2 C 4.48094 10.6613 8.0075
317 2 C 3.04951 10.6264 7.60523
318 4 O 2.51123 11.9551 7.57913
319 1 H 4.91114 11.5 7.48279
320 1 H 4.63193 10.7813 9.08127
321 1 H 4.97186 9.74664 7.67418
322 1 H 2.35409 10.0336 8.18559
323 1 H 2.99324 10.1837 6.62756
324 1 H 2.04019 12.0207 6.75353
325 2 C 0.225104 -0.415238 10.6407
326 2 C -0.334611 0.444589 11.7289
327 4 O 0.199854 -0.163162 12.9678
328 1 H -0.149054 17.2915 10.7332
329 1 H -0.149034 -0.0550419 9.70763
330 1 H 1.32585 -0.328288 10.8153
331 1 H 17.2872 0.387706 11.74
332 1 H 0.00756138 1.46044 11.5842
333 1 H -0.137214 0.373823 13.6819
334 2 C 1.86767 5.83503 13.8614
335 2 C 1.878 4.35392 14.3688
336 4 O 0.767245 3.97003 15.129
337 1 H 2.74433 5.96708 13.1949
338 1 H 1.03128 6.07695 13.2422
339 1 H 1.94558 6.65305 14.6031
340 1 H 2.82747 4.06509 14.908
341 1 H 1.89357 3.73892 13.4381
342 1 H 0.407152 4.64298 15.7266
343 2 C 7.8359 13.379 16.0557
344 2 C 6.7365 13.303 17.1137
345 4 O 6.95551 12.1357 -0.751312
346 1 H 7.3763 13.8498 15.096
347 1 H 8.54758 14.0567 16.398
348 1 H 8.42886 12.4124 15.9793
349 1 H 5.77696 13.0932 16.6118
350 1 H 6.65418 14.2299 17.7248
351 1 H 7.84915 12.1662 -0.382039
352 2 C 3.17244 0.76975 12.9856
353 2 C 4.17227 1.81673 12.7707
354 4 O 4.35615 2.14808 11.4196
355 1 H 3.37567 -0.161963 12.4634
356 1 H 3.13182 0.493292 14.0343
357 1 H 2.19404 1.09825 12.7013
358 1 H 5.1388 1.4848 13.1742
359 1 H 3.93165 2.72552 13.3093
360 1 H 4.74934 1.36824 11.0213
361 2 C 9.79838 14.5843 8.58861
362 2 C 10.4813 14.9636 9.94129
363 4 O 10.6702 13.825 10.728
364 1 H 8.70223 14.6947 8.58851
365 1 H 10.2043 15.1478 7.72431
366 1 H 10.0409 13.5229 8.34512
367 1 H 9.80656 15.6865 10.4596
368 1 H 11.4624 15.4196 9.77359
369 1 H 10.4959 14.0744 11.6324
370 2 C 12.8923 7.81742 10.7353
371 2 C 12.3829 6.555 10.0602
372 4 O 11.0124 6.33962 10.5126
373 1 H 13.2688 7.55478 11.7164
374 1 H 13.6494 8.24367 10.1508
375 1 H 12.1138 8.61511 10.75
376 1 H 13.019 5.72078 10.2849
377 1 H 12.3425 6.61323 8.94905
378 1 H 10.5528 5.84301 9.81083
379 2 C 1.29537 8.38026 2.5572
380 2 C 2.02356 7.06995 2.90415
381 4 O 3.39276 7.02001 2.4873
382 1 H 0.901636 8.32494 1.52565
383 1 H 0.404185 8.40189 3.19839
384 1 H 1.81865 9.31909 2.76218
385 1 H 1.45248 6.21046 2.51548
386 1 H 2.04575 7.03572 3.99884
387 1 H 3.37262 6.80783 1.54498
388 2 C 13.5762 11.6989 10.7054
389 2 C 13.7796 12.8141 11.7726
390 4 O 13.4224 14.145 11.3906
391 1 H 13.937 11.912 9.70494
392 1 H 14.1203 10.8702 11.1112
393 1 H 12.5161 11.4223 10.6289
394 1 H 14.8277 12.7858 12.0509
395 1 H 13.1874 12.5739 12.6555
396 1 H 12.5794 13.9957 10.8855
397 2 C 0.609445 12.3832 12.6988
398 2 C 2.11807 12.3119 12.5851
399 4 O 2.37863 11.103 11.8408
400 1 H 0.244073 11.8306 13.5544
401 1 H 0.278234 13.3643 12.869
402 1 H 0.108394 12.0488 11.7667
403 1 H 2.51223 12.1711 13.5836
404 1 H 2.55231 13.1895 12.1455
405 1 H 3.3411 11.0189 11.7544
406 2 C 2.68073 10.3792 16.7613
407 2 C 3.82645 9.90164 17.6374
408 4 O 5.12128 10.117 17.0665
409 1 H 2.64701 11.4662 16.794
410 1 H 2.74967 9.97672 15.7568
411 1 H 1.69891 10.1483 17.1493
412 1 H 3.8607 8.82296 17.9349
413 1 H 3.60876 10.5112 -0.160348
414 1 H 5.66949 10.466 17.7813
415 2 C 9.94396 6.12903 5.24094
416 2 C 9.1394 6.83325 6.45607
417 4 O 9.87992 6.6488 7.64388
418 1 H 9.79998 5.02345 5.27481
419 1 H 9.79103 6.56201 4.25241
420 1 H 11.0198 6.28697 5.44324
421 1 H 8.1637 6.33431 6.46344
422 1 H 8.99053 7.88681 6.15333
423 1 H 9.74067 7.43038 8.19791
424 2 C 3.43811 14.2533 1.71743
425 2 C 4.18217 12.9814 2.07679
426 4 O 3.26815 11.9318 2.31689
427 1 H 2.95854 14.1168 0.711083
428 1 H 2.76517 14.595 2.43098
429 1 H 4.13393 15.0707 1.70903
430 1 H 4.71183 13.1885 3.01146
431 1 H 4.9484 12.6545 1.35748
432 1 H 3.78559 11.1225 2.47309
433 2 C 1.66857 3.741 8.04573
434 2 C 0.254338 3.7159 7.29999
435 4 O 0.333876 4.47321 6.15463
436 1 H 1.92245 4.6317 8.62334
437 1 H 1.57718 2.90923 8.7664
438 1 H 2.52197 3.67103 7.36219
439 1 H -0.459653 4.03326 8.03216
440 1 H -0.00794306 2.61497 7.16105
441 1 H 0.415379 5.40415 6.39107
442 2 C 13.743 7.72084 17.9202
443 2 C 15.0857 7.99839 17.2745
444 4 O 15.7315 6.72971 17.0094
445 1 H 13.0872 8.5197 -0.509965
446 1 H 13.2152 7.12652 17.1925
447 1 H 13.789 6.94582 -0.0362596
448 1 H 15.7608 8.56004 -0.767306
449 1 H 14.8933 8.61806 16.3983
450 1 H 15.2323 6.44154 16.2106
ITEM: TIMESTEP
7800
ITEM: NUMBER OF ATOMS
450
ITEM: BOX BOUNDS pp pp pp
-9.3772651160407605e-01 1.7862726511603935e+01
-9.3772651160407605e-01 1.7862726511603935e+01
-9.3772651160407605e-01 1.7862726511603935e+01
ITEM: ATOMS id type element x y z
1 2 C 6.0953 5.10256 15.6226
2 2 C 5.60769 3.67091 15.6244
3 4 O 5.14623 3.40126 16.9508
4 1 H 5.24014 5.73052 15.9034
5 1 H 6.85524 5.20457 16.4127
6 1 H 6.60161 5.40156 14.6908
7 1 H 6.40353 2.99557 15.3812
8 1 H 4.84576 3.47233 14.8914
9 1 H 4.7748 2.51908 17.0171
10 2 C 10.1266 14.0081 0.985836
11 2 C 11.5662 13.9465 1.42637
12 4 O 12.424 14.0341 0.277711
13 1 H 9.87888 13.3077 0.188394
14 1 H 9.38746 13.7973 1.74065
15 1 H 9.8665 15.03 0.694311
16 1 H 11.7622 12.999 1.93296
17 1 H 11.8466 14.7113 2.15022
18 1 H 13.1914 13.5121 0.53042
19 2 C 9.51442 7.07989 0.169248
20 2 C 9.74133 7.76399 17.6231
21 4 O 10.2585 9.10785 17.8423
22 1 H 9.01335 7.81289 0.754216
23 1 H 8.63235 6.4062 -0.00445808
24 1 H 10.3472 6.55695 0.604079
25 1 H 8.76484 7.86433 17.1388
26 1 H 10.3987 7.13197 17.0423
27 1 H 10.6887 9.308 16.9937
28 2 C 17.346 6.66753 10.3875
29 2 C -0.5894 7.87337 10.1794
30 4 O 0.536472 7.685 9.36329
31 1 H -0.815782 5.82951 10.6927
32 1 H 16.7245 6.86118 11.233
33 1 H 16.7766 6.50402 9.48392
34 1 H -0.155301 8.16841 11.1351
35 1 H 17.6216 8.70577 9.78371
36 1 H 1.34729 7.56664 9.84631
37 2 C 1.69418 16.1162 15.1914
38 2 C 2.69281 15.5379 14.3258
39 4 O 3.87676 15.5498 14.5576
40 1 H 1.9322 16.4705 16.2171
41 1 H 1.27175 16.8393 14.578
42 1 H 0.883389 15.3922 15.3015
43 1 H 2.28208 15.3036 13.3987
44 1 H -0.627731 17.1585 3.40047
45 1 H 5.25943 4.11617 9.45882
46 2 C 7.80565 14.0786 4.91321
47 2 C 7.19881 12.6937 5.15712
48 4 O 7.86665 11.7218 4.40432
49 1 H 7.36973 14.8065 5.58903
50 1 H 8.8874 14.0451 5.16067
51 1 H 7.67382 14.3876 3.87444
52 1 H 6.14832 12.7582 4.88192
53 1 H 7.19338 12.4258 6.21188
54 1 H 8.80036 11.8924 4.51562
55 2 C 16.735 5.1522 13.8432
56 2 C 15.1824 4.96881 13.9089
57 4 O 14.7933 5.85293 14.9709
58 1 H 17.1471 5.19157 14.8156
59 1 H 17.1973 4.3042 13.3579
60 1 H 16.8991 5.98772 13.188
61 1 H 14.8515 3.98274 14.0629
62 1 H 14.78 5.224 12.9549
63 1 H 13.8466 5.97959 15.0054
64 2 C 8.71521 11.0545 7.89375
65 2 C 9.51673 10.4644 9.03596
66 4 O 9.8342 9.08511 8.86047
67 1 H 7.68205 11.1521 8.25359
68 1 H 9.0024 12.0884 7.59431
69 1 H 8.71752 10.3671 7.02856
70 1 H 9.02513 10.6079 9.98944
71 1 H 10.4863 10.9947 9.11627
72 1 H 10.1024 8.72156 9.70754
73 2 C 4.59868 3.26333 5.82618
74 2 C 4.86269 4.54512 6.50716
75 4 O 6.07348 4.49536 7.29505
76 1 H 4.24236 2.57281 6.58496
77 1 H 3.76845 3.48387 5.13409
78 1 H 5.4366 2.84241 5.30283
79 1 H 4.02548 4.75921 7.17105
80 1 H 5.04801 5.35596 5.815
81 1 H 6.04031 3.79258 7.95766
82 2 C 5.9145 9.80144 12.1224
83 2 C 6.12524 9.93102 13.6028
84 4 O 5.21393 10.7366 14.1963
85 1 H 4.91541 9.52235 11.8209
86 1 H 6.00652 10.799 11.6675
87 1 H 6.69888 9.04235 11.7671
88 1 H 7.18336 10.2311 13.7132
89 1 H 6.04394 8.91476 14.0071
90 1 H 5.21418 10.6317 15.157
91 2 C 10.9428 4.41746 14.8083
92 2 C 10.8374 5.95763 14.3508
93 4 O 11.8127 6.74875 15.0304
94 1 H 11.6521 3.90525 14.1401
95 1 H 11.0329 4.33305 15.8161
96 1 H 9.94727 3.93565 14.5273
97 1 H 9.9258 6.58681 14.4619
98 1 H 11.1219 5.88347 13.2962
99 1 H 12.0939 7.52642 14.5528
100 2 C 5.3466 13.4652 11.755
101 2 C 6.53936 13.7347 10.8503
102 4 O 7.20004 14.9207 11.2396
103 1 H 4.71331 14.3592 11.7356
104 1 H 4.7645 12.677 11.3508
105 1 H 5.65434 13.1366 12.7288
106 1 H 6.21209 13.7614 9.8208
107 1 H 7.25268 12.9412 10.8358
108 1 H 6.92505 15.1383 12.1373
109 2 C 4.56427 15.2189 6.78594
110 2 C 3.54899 15.0951 5.65173
111 4 O 3.19829 13.7612 5.58572
112 1 H 4.21867 14.7878 7.74279
113 1 H 5.50356 14.8018 6.53605
114 1 H 4.80132 16.2676 7.02311
115 1 H 4.12688 15.4332 4.77125
116 1 H 2.68033 15.7069 5.87132
117 1 H 2.65404 13.5804 4.80516
118 2 C 5.109 7.71187 9.56014
119 2 C 3.69326 7.17792 9.54158
120 4 O 2.87294 7.69434 10.56
121 1 H 5.7186 7.35843 10.3916
122 1 H 5.59724 7.50592 8.63172
123 1 H 5.06201 8.79774 9.6579
124 1 H 3.62152 6.08756 9.63952
125 1 H 3.19637 7.53067 8.57806
126 1 H 3.39553 8.29553 11.0696
127 2 C 7.02215 0.0190361 14.6281
128 2 C 7.20092 17.8339 13.4776
129 4 O 7.07138 16.5764 14.0995
130 1 H 7.23502 1.02394 14.348
131 1 H 5.99424 0.0511112 15.0921
132 1 H 7.70118 -0.175115 15.4943
133 1 H 8.23118 17.8394 13.0666
134 1 H 6.5209 -0.804037 12.6155
135 1 H 6.2034 16.4965 14.523
136 2 C 11.6562 12.1379 4.59004
137 2 C 12.3659 13.3697 5.16048
138 4 O 12.1148 14.5671 4.46641
139 1 H 12.1966 11.8008 3.72848
140 1 H 11.5739 11.3393 5.33223
141 1 H 10.6422 12.5863 4.33858
142 1 H 13.433 13.2101 5.11064
143 1 H 12.077 13.5543 6.25341
144 1 H 11.4528 15.0188 4.99174
145 2 C 5.24576 17.7794 -0.446421
146 2 C 6.66252 17.5796 0.170077
147 4 O 7.47956 16.8288 -0.657184
148 1 H 4.75906 -0.2694 0.221498
149 1 H 5.40095 -0.62177 17.3098
150 1 H 4.5956 16.9046 -0.563731
151 1 H 6.60589 16.938 1.11866
152 1 H 7.17865 -0.291079 0.431507
153 1 H 7.05649 16.5357 17.3542
154 2 C 0.525261 0.430966 16.4309
155 2 C -0.752013 1.24692 16.2209
156 4 O -0.880076 1.71171 14.8973
157 1 H 1.35242 1.09079 16.1682
158 1 H 0.690402 -0.0173455 17.3907
159 1 H 0.430094 -0.346692 15.6848
160 1 H -0.801402 2.14511 16.8664
161 1 H 17.2063 0.595955 16.4787
162 1 H -0.226707 2.39381 14.6719
163 2 C 17.5275 9.27848 6.89056
164 2 C 17.2144 7.82141 6.95026
165 4 O -0.412749 6.98023 6.65297
166 1 H 17.8314 9.55123 5.87723
167 1 H 16.6866 9.89501 7.21245
168 1 H -0.457652 9.38909 7.58299
169 1 H 16.4511 7.46828 6.1601
170 1 H 16.8016 7.5167 7.92915
171 1 H 0.264309 7.12504 7.35017
172 2 C 14.0065 9.2415 2.17239
173 2 C 12.7086 8.56641 2.25123
174 4 O 11.7291 9.54538 2.70824
175 1 H 13.8988 10.0664 1.44874
176 1 H 14.4314 9.64623 3.10361
177 1 H 14.7555 8.53157 1.75616
178 1 H 12.6144 7.83532 3.06617
179 1 H 12.4018 8.10172 1.2925
180 1 H 11.583 10.1499 2.00402
181 2 C -0.126253 2.13561 3.40153
182 2 C -0.753162 3.0757 2.41199
183 4 O -0.888425 4.51183 2.84768
184 1 H -0.653561 2.40967 4.28771
185 1 H -0.20391 1.11836 3.01961
186 1 H 0.848797 2.46556 3.57051
187 1 H 17.0273 2.80676 2.22101
188 1 H -0.257714 3.08226 1.446
189 1 H -0.011723 4.91435 2.99043
190 2 C 6.51951 -0.172888 8.23894
191 2 C 6.86562 1.27813 8.06534
192 4 O 6.30076 2.03895 9.13849
193 1 H 6.70319 -0.71891 7.31303
194 1 H 7.10375 -0.639428 9.03279
195 1 H 5.49827 -0.394162 8.46576
196 1 H 6.39236 1.65376 7.15705
197 1 H 7.93265 1.36671 8.02301
198 1 H 6.95512 2.01519 9.87245
199 2 C 10.993 16.047 15.6548
200 2 C 10.3744 15.8636 14.2707
201 4 O 10.8158 14.7078 13.5042
202 1 H 10.6111 16.8879 16.2295
203 1 H 10.8817 15.1894 16.2921
204 1 H 12.0438 16.2432 15.4937
205 1 H 10.7424 16.7175 13.724
206 1 H 9.28995 15.8312 14.2674
207 1 H 11.5652 14.2449 13.9093
208 2 C 6.78283 8.94827 0.697312
209 2 C 6.29942 9.61787 1.91966
210 4 O 4.87049 9.64742 2.09712
211 1 H 6.2368 9.08227 -0.211436
212 1 H 7.77378 9.37531 0.515316
213 1 H 6.93586 7.8778 0.759625
214 1 H 6.49165 10.6949 1.82872
215 1 H 6.77567 9.1728 2.78691
216 1 H 4.49418 8.75241 2.10553
217 2 C -0.434134 9.03718 13.8649
218 2 C 16.9912 9.34617 14.4046
219 4 O 15.8705 9.31916 13.441
220 1 H -0.480242 8.07227 13.3538
221 1 H -0.25561 9.74769 13.1093
222 1 H 0.257038 9.00582 14.6975
223 1 H 17.0067 10.2825 14.8524
224 1 H 16.724 8.58655 15.1617
225 1 H 15.2031 8.74218 13.8225
226 2 C 14.4447 3.28808 4.09274
227 2 C 14.5958 4.80711 3.69619
228 4 O 15.6219 5.38032 4.54581
229 1 H 15.3267 2.64804 4.01331
230 1 H 14.0373 3.24147 5.09638
231 1 H 13.6497 2.83342 3.49452
232 1 H 13.6945 5.3523 3.95627
233 1 H 14.8605 4.85149 2.66254
234 1 H 16.3997 5.59538 4.03151
235 2 C 1.46337 16.8457 1.95835
236 2 C 0.0358002 16.3368 1.68231
237 4 O -0.90498 16.4791 2.75751
238 1 H 1.37969 -0.861001 2.02745
239 1 H 1.72772 16.6237 2.98798
240 1 H 2.24067 16.574 1.20166
241 1 H 0.167683 15.2787 1.46414
242 1 H -0.373537 16.8282 0.774632
243 1 H 0.00613648 4.09589 5.36752
244 2 C 13.1528 16.6569 7.31214
245 2 C 12.3095 17.7327 6.66933
246 4 O 11.1364 17.096 6.00411
247 1 H 14.0242 17.1746 7.92272
248 1 H 12.5598 15.9545 7.82847
249 1 H 13.5086 16.0751 6.42536
250 1 H 12.715 -0.392801 5.91848
251 1 H 11.9864 -0.504207 7.60627
252 1 H 10.8522 17.7641 5.36169
253 2 C 1.58055 5.20393 -0.632485
254 2 C 0.223078 5.9496 -0.672928
255 4 O -0.323867 5.85181 16.8398
256 1 H 1.98577 5.26803 0.393211
257 1 H 1.47955 4.14809 -0.770105
258 1 H 2.34475 5.57429 17.461
259 1 H 0.24626 7.05499 -0.552934
260 1 H -0.51599 5.57989 0.0857033
261 1 H 17.5934 6.34004 16.7622
262 2 C -0.612748 13.6687 5.03342
263 2 C -0.0180382 12.7575 3.95012
264 4 O 1.42095 13.0208 3.84011
265 1 H -0.311258 13.361 6.01281
266 1 H -0.246141 14.7359 5.03322
267 1 H 17.0967 13.6888 4.8525
268 1 H -0.563621 12.9013 3.02151
269 1 H -0.13502 11.7014 4.19036
270 1 H 1.84755 12.3237 3.31275
271 2 C 15.6293 2.06493 -0.00310074
272 2 C 15.5241 3.39229 -0.741251
273 4 O 14.5904 3.27807 16.9132
274 1 H 15.549 1.32261 -0.762608
275 1 H 16.5422 2.03578 0.524165
276 1 H 14.7542 1.90706 0.659942
277 1 H 16.5199 3.73495 17.7476
278 1 H 15.172 4.24624 -0.161893
279 1 H 14.6926 4.06935 16.4071
280 2 C 11.5377 1.27317 11.136
281 2 C 10.1188 0.808318 11.2568
282 4 O 9.24739 1.38089 10.3153
283 1 H 11.5603 2.32177 11.4165
284 1 H 12.1976 0.631221 11.7205
285 1 H 11.8239 1.14918 10.0567
286 1 H 9.81989 1.08118 12.3006
287 1 H 9.95582 -0.254258 11.1201
288 1 H 8.85527 2.20263 10.5996
289 2 C 7.80343 5.60202 10.9014
290 2 C 8.41128 4.41848 11.6657
291 4 O 7.55147 3.32706 11.9496
292 1 H 6.89697 5.90942 11.4508
293 1 H 8.57896 6.35001 10.8922
294 1 H 7.49809 5.32985 9.87337
295 1 H 8.7496 4.80864 12.6083
296 1 H 9.29388 4.17671 11.0591
297 1 H 6.692 3.50934 11.5769
298 2 C 13.1849 8.2001 6.2725
299 2 C 13.3794 9.64586 6.89306
300 4 O 12.3236 10.1279 7.69433
301 1 H 13.7513 8.17121 5.33965
302 1 H 13.5393 7.39146 6.89068
303 1 H 12.1823 8.01422 5.93081
304 1 H 13.4867 10.3715 6.09252
305 1 H 14.2959 9.58207 7.4567
306 1 H 11.8159 9.38824 8.10064
307 2 C 11.6847 11.0835 14.7032
308 2 C 13.0005 10.3175 14.4741
309 4 O 12.7351 9.19396 13.6682
310 1 H 10.901 10.4489 15.1481
311 1 H 11.7523 11.9469 15.3843
312 1 H 11.2868 11.5184 13.7915
313 1 H 13.33 9.83025 15.4176
314 1 H 13.8351 10.854 14.0681
315 1 H 12.6075 9.45762 12.7362
316 2 C 4.47063 10.5245 7.43157
317 2 C 2.91507 10.4833 7.31902
318 4 O 2.2781 11.755 7.4345
319 1 H 4.90685 11.0521 6.58487
320 1 H 4.75012 11.0803 8.3324
321 1 H 4.85899 9.50969 7.47899
322 1 H 2.4369 9.94659 8.16729
323 1 H 2.54522 9.97361 6.40988
324 1 H 2.96131 12.4025 7.10623
325 2 C -0.160814 -0.684797 10.6186
326 2 C -0.371478 0.273028 11.8462
327 4 O 0.0775094 -0.263364 13.0508
328 1 H -0.58353 17.1595 10.8324
329 1 H -0.719728 -0.271718 9.79218
330 1 H 0.920415 -0.877868 10.5261
331 1 H 17.415 0.616741 11.9053
332 1 H 0.239847 1.18551 11.633
333 1 H -0.297307 0.30213 13.7618
334 2 C 1.63158 6.01349 14.2313
335 2 C 1.83597 4.55969 14.3766
336 4 O 0.653883 3.9077 14.9069
337 1 H 2.53217 6.67339 14.2481
338 1 H 1.1816 6.31518 13.2907
339 1 H 0.918967 6.31337 15.0044
340 1 H 2.59042 4.3365 15.1035
341 1 H 1.98953 4.0593 13.4571
342 1 H 0.317257 4.52728 15.5906
343 2 C 8.13386 13.3898 16.279
344 2 C 6.9638 13.1493 17.1893
345 4 O 7.07358 11.894 -0.933263
346 1 H 8.11148 14.427 15.9681
347 1 H 9.08401 13.2057 16.8571
348 1 H 8.04552 12.8687 15.3566
349 1 H 6.00944 13.1693 16.6648
350 1 H 6.89964 13.909 -0.860401
351 1 H 7.85074 11.3833 17.6283
352 2 C 3.30616 0.747533 12.9521
353 2 C 4.21341 1.95607 12.8686
354 4 O 4.67219 2.51799 11.5445
355 1 H 3.75375 -0.207145 12.6728
356 1 H 2.87268 0.639349 13.9795
357 1 H 2.43629 0.919328 12.3723
358 1 H 5.08883 1.88412 13.5068
359 1 H 3.60701 2.79794 13.2192
360 1 H 4.76581 1.81659 10.9169
361 2 C 9.90929 14.6745 8.55104
362 2 C 10.7147 14.7657 9.81165
363 4 O 10.4428 13.6316 10.6439
364 1 H 8.93691 14.4188 8.89705
365 1 H 9.96822 15.5418 7.91683
366 1 H 10.2522 13.8504 7.91805
367 1 H 10.417 15.7074 10.2351
368 1 H 11.7683 14.7406 9.62587
369 1 H 9.81504 13.9948 11.2968
370 2 C 12.6455 7.8833 10.623
371 2 C 12.3401 6.4602 10.1164
372 4 O 10.9808 6.20092 10.3782
373 1 H 11.9292 8.11653 11.3959
374 1 H 13.6749 7.95802 11.0517
375 1 H 12.69 8.63477 9.82994
376 1 H 12.97 5.66314 10.5845
377 1 H 12.4216 6.39334 9.05891
378 1 H 10.4824 5.97949 9.60359
379 2 C 1.56876 8.40019 2.49594
380 2 C 2.02981 6.9746 2.70695
381 4 O 3.3517 6.79415 2.1528
382 1 H 1.7685 8.63878 1.45452
383 1 H 0.50801 8.5893 2.60783
384 1 H 2.12059 9.12313 3.08833
385 1 H 1.33385 6.26812 2.29411
386 1 H 2.1024 6.76164 3.78836
387 1 H 3.17005 6.53845 1.24803
388 2 C 14.0199 11.8258 10.98
389 2 C 13.6442 12.784 12.0876
390 4 O 13.2012 14.0308 11.6939
391 1 H 14.8683 12.1498 10.3539
392 1 H 14.2153 10.7939 11.3386
393 1 H 13.1336 11.821 10.3569
394 1 H 14.5069 12.9162 12.7345
395 1 H 12.8844 12.3083 12.7107
396 1 H 12.2959 14.0067 11.487
397 2 C 0.333165 12.2354 12.6113
398 2 C 1.84944 12.3356 12.6136
399 4 O 2.54571 11.1185 12.3698
400 1 H -0.0139638 11.4498 13.3041
401 1 H -0.144666 13.1674 13.0142
402 1 H -0.0663097 12.0522 11.6253
403 1 H 2.13227 12.7187 13.6193
404 1 H 2.18408 13.0792 11.8757
405 1 H 2.95091 10.8016 13.1739
406 2 C 2.59038 10.3593 16.8136
407 2 C 3.74572 9.80499 17.6159
408 4 O 4.94527 10.1873 17.0445
409 1 H 2.66588 11.4629 16.8063
410 1 H 2.66199 9.99981 15.759
411 1 H 1.61441 10.016 17.1676
412 1 H 3.77273 8.7478 17.593
413 1 H 3.58618 10.2171 -0.196903
414 1 H 5.57121 10.3958 17.7703
415 2 C 9.81568 5.82393 5.37847
416 2 C 9.2087 6.76771 6.31223
417 4 O 9.87107 6.64416 7.57724
418 1 H 10.084 4.9481 5.94833
419 1 H 9.17543 5.55616 4.55158
420 1 H 10.7123 6.22929 4.95622
421 1 H 8.15861 6.48231 6.40961
422 1 H 9.34332 7.78505 5.92403
423 1 H 9.67517 7.42331 8.10005
424 2 C 3.6201 14.18 1.61873
425 2 C 4.23233 12.89 2.05893
426 4 O 3.17727 11.8407 2.06736
427 1 H 3.1917 14.0625 0.592817
428 1 H 2.86136 14.6111 2.27182
429 1 H 4.35058 14.986 1.66707
430 1 H 4.7467 13.0276 2.99937
431 1 H 5.0826 12.5945 1.40238
432 1 H 3.74819 11.0566 2.08863
433 2 C 1.53584 3.82092 7.8538
434 2 C 0.121815 3.75747 7.3458
435 4 O -0.122274 4.57246 6.1988
436 1 H 1.63117 4.78885 8.36941
437 1 H 1.75488 2.99221 8.49325
438 1 H 2.23774 3.84073 7.0221
439 1 H -0.603047 3.91753 8.1379
440 1 H -0.216988 2.77334 6.99746
441 1 H -0.0749158 5.61928 6.21137
442 2 C 13.7205 7.61588 17.7754
443 2 C 15.0572 7.89641 17.1413
444 4 O 15.938 6.7992 17.0864
445 1 H 13.0488 8.50598 17.7043
446 1 H 13.2035 6.76761 17.3203
447 1 H 13.714 7.23667 0.0160428
448 1 H 15.5154 8.6259 17.79
449 1 H 14.9011 8.40643 16.1925
450 1 H 15.6345 6.19771 16.337
ITEM: TIMESTEP
7900
ITEM: NUMBER OF ATOMS
450
ITEM: BOX BOUNDS pp pp pp
-9.8068921828510902e-01 1.7905689218284991e+01
-9.8068921828510902e-01 1.7905689218284991e+01
-9.8068921828510902e-01 1.7905689218284991e+01
ITEM: ATOMS id type element x y z
1 2 C 5.90919 5.39438 15.9616
2 2 C 5.666 3.92374 15.9213
3 4 O 4.67967 3.65015 16.9434
4 1 H 4.97537 5.90894 15.9494
5 1 H 6.51826 5.6914 16.8033
6 1 H 6.44744 5.58629 15.0325
7 1 H 6.61717 3.45874 16.2597
8 1 H 5.39316 3.57136 14.9246
9 1 H 4.44627 2.70925 17.0066
10 2 C 10.008 14.6794 0.895249
11 2 C 11.3756 14.2188 1.38025
12 4 O 12.3018 14.0511 0.273918
13 1 H 9.30119 13.951 0.456193
14 1 H 9.37758 14.9464 1.76764
15 1 H 10.0251 15.5704 0.26491
16 1 H 11.2567 13.2158 1.82354
17 1 H 11.8148 14.9179 2.14316
18 1 H 13.1176 14.4805 0.553689
19 2 C 9.86644 6.98657 0.264495
20 2 C 9.66601 7.83792 17.8637
21 4 O 10.2863 9.0836 -0.827479
22 1 H 9.40538 7.55691 1.06711
23 1 H 9.37684 6.0341 0.105354
24 1 H 10.9295 6.917 0.452476
25 1 H 8.61044 7.99075 17.6109
26 1 H 10.141 7.22011 17.0952
27 1 H 10.437 9.47881 17.2122
28 2 C 17.4986 6.36919 10.3862
29 2 C -0.684797 7.74399 10.1093
30 4 O 0.479676 7.40914 9.36126
31 1 H -0.989033 5.9497 11.3099
32 1 H 16.417 6.45638 10.6156
33 1 H 17.7154 5.82925 9.47174
34 1 H -0.328894 8.26272 10.9617
35 1 H 17.5881 8.38991 9.51135
36 1 H 1.32812 7.54678 9.82521
37 2 C 1.56765 15.8895 14.9739
38 2 C 2.83136 15.84 14.0237
39 4 O 3.92978 15.6505 14.4318
40 1 H 1.90618 15.9871 16.0198
41 1 H 1.00962 16.8509 14.7277
42 1 H 0.833847 15.0999 14.8643
43 1 H 2.55559 15.9769 12.9249
44 1 H -0.56527 16.1203 3.51941
45 1 H 5.75842 4.06769 9.806
46 2 C 7.82416 14.096 4.67906
47 2 C 7.31011 12.7503 5.08163
48 4 O 7.97484 11.735 4.33959
49 1 H 7.36685 14.8656 5.28821
50 1 H 8.87858 14.1232 4.91688
51 1 H 7.75058 14.2171 3.61332
52 1 H 6.25388 12.7531 4.8335
53 1 H 7.34628 12.5717 6.16306
54 1 H 8.83143 11.5622 4.73388
55 2 C 16.5213 5.1234 13.8973
56 2 C 15.0904 4.96715 14.0591
57 4 O 14.6099 5.61958 15.1475
58 1 H 16.8987 4.80266 14.8919
59 1 H 17.0576 4.47049 13.1476
60 1 H 16.6853 6.17828 13.7505
61 1 H 14.8866 3.85937 14.1412
62 1 H 14.5723 5.27232 13.0934
63 1 H 13.7492 6.05656 14.888
64 2 C 8.88648 11.1307 7.73081
65 2 C 9.82891 10.8329 8.89933
66 4 O 10.095 9.40467 8.88454
67 1 H 7.92639 10.6086 7.91109
68 1 H 8.8287 12.1829 7.64011
69 1 H 9.20303 10.6755 6.80577
70 1 H 9.29184 11.1214 9.83607
71 1 H 10.7257 11.4208 8.80893
72 1 H 10.7363 9.19744 9.55104
73 2 C 4.56742 3.12798 5.84488
74 2 C 4.84149 4.50869 6.53093
75 4 O 5.99898 4.48805 7.32956
76 1 H 4.4976 2.35832 6.62992
77 1 H 3.58134 3.18393 5.40258
78 1 H 5.4058 2.84656 5.19534
79 1 H 3.96949 4.80507 7.12967
80 1 H 5.00688 5.33445 5.82817
81 1 H 5.98874 3.74458 7.94491
82 2 C 5.92771 9.85743 12.12
83 2 C 6.04313 9.79196 13.6972
84 4 O 5.15271 10.8216 14.2657
85 1 H 4.86038 9.8293 11.8411
86 1 H 6.29269 10.8314 11.8053
87 1 H 6.44101 9.07409 11.5643
88 1 H 7.03024 10.1898 13.8747
89 1 H 5.93863 8.79077 14.1348
90 1 H 4.77474 10.6664 15.1664
91 2 C 11.2462 4.5083 15.1409
92 2 C 11.0384 5.70242 14.3432
93 4 O 12.0119 6.61232 14.7646
94 1 H 12.3153 4.25217 15.1534
95 1 H 10.8734 4.89211 16.1317
96 1 H 10.7461 3.64835 14.744
97 1 H 10.1482 6.21864 14.6343
98 1 H 10.9642 5.49471 13.2815
99 1 H 12.0002 7.4842 14.2916
100 2 C 5.46105 13.3045 11.7129
101 2 C 6.54462 13.7366 10.7171
102 4 O 7.37785 14.8034 11.2084
103 1 H 4.85646 14.1903 11.8626
104 1 H 4.76928 12.548 11.2739
105 1 H 5.92614 12.9735 12.6571
106 1 H 6.03054 14.0511 9.8073
107 1 H 7.23198 12.8979 10.3799
108 1 H 7.38105 14.8152 12.1752
109 2 C 4.67118 15.3721 7.032
110 2 C 3.51202 15.0167 6.13108
111 4 O 3.4306 13.5815 5.94654
112 1 H 4.48685 15.0672 8.03448
113 1 H 5.52018 14.7573 6.73281
114 1 H 5.10557 16.3898 7.01335
115 1 H 3.60486 15.54 5.17783
116 1 H 2.56862 15.3349 6.5962
117 1 H 2.96829 13.4957 5.09354
118 2 C 5.23917 7.67054 9.48788
119 2 C 3.96919 6.92586 9.80135
120 4 O 2.99876 7.45618 10.8153
121 1 H 5.86578 7.887 10.3749
122 1 H 5.85482 6.97792 8.87424
123 1 H 5.13976 8.57979 8.9175
124 1 H 4.23252 5.94806 10.1387
125 1 H 3.34723 6.79715 8.92839
126 1 H 3.49885 8.03184 11.3898
127 2 C 7.16975 -0.031696 14.3749
128 2 C 7.1449 17.6067 13.563
129 4 O 6.82675 16.3849 14.2336
130 1 H 7.3726 0.852211 13.7736
131 1 H 6.28899 0.258053 14.8816
132 1 H 7.90029 -0.129954 15.1948
133 1 H 8.11956 17.3975 13.2025
134 1 H 6.52661 -1.13201 12.6929
135 1 H 5.88243 16.2464 14.2378
136 2 C 11.601 12.305 4.59979
137 2 C 12.4468 13.4075 5.2378
138 4 O 12.2137 14.58 4.42656
139 1 H 12.1624 11.4791 4.158
140 1 H 10.9523 11.8663 5.39926
141 1 H 10.9414 12.698 3.81909
142 1 H 13.5328 13.1858 5.20027
143 1 H 12.1894 13.6118 6.24327
144 1 H 12.2726 15.3922 4.92533
145 2 C 5.34027 17.7617 -0.676153
146 2 C 6.78644 17.9209 -0.298677
147 4 O 7.63055 16.8899 -0.947798
148 1 H 4.67592 -0.540652 0.00682125
149 1 H 5.19596 -0.666311 17.2802
150 1 H 5.06849 16.6747 -0.616957
151 1 H 6.90658 17.694 0.701175
152 1 H 7.19338 0.0183833 -0.585645
153 1 H 7.11632 16.1563 17.5805
154 2 C 0.339663 0.380652 16.6235
155 2 C -0.669707 1.47735 16.3278
156 4 O -0.876405 1.59921 14.9306
157 1 H 1.26601 0.545693 16.0434
158 1 H 0.621856 0.448328 17.6781
159 1 H -0.0568926 -0.618916 16.395
160 1 H -0.35567 2.44326 16.7001
161 1 H 17.2861 1.21724 16.8476
162 1 H -0.457359 2.38406 14.5482
163 2 C 17.2366 9.28732 6.71788
164 2 C 17.2438 7.73316 6.91935
165 4 O -0.386825 7.07937 6.92752
166 1 H 17.1607 9.67392 5.691
167 1 H 16.4305 9.60613 7.36294
168 1 H -0.769137 9.72291 7.19625
169 1 H 16.6553 7.13244 6.22815
170 1 H 16.829 7.57012 7.88811
171 1 H 0.0795903 7.29603 7.74794
172 2 C 14.1087 9.2777 2.47016
173 2 C 12.7138 8.83204 2.12344
174 4 O 11.7658 9.50562 2.91253
175 1 H 14.3147 10.2771 2.11522
176 1 H 14.3392 9.15819 3.50941
177 1 H 14.8279 8.72226 1.89493
178 1 H 12.5217 7.76397 2.2605
179 1 H 12.5856 9.12748 1.08878
180 1 H 11.1481 9.85279 2.27983
181 2 C -0.0385049 2.16106 3.37798
182 2 C -0.403415 3.27778 2.37997
183 4 O -0.502957 4.48798 3.05591
184 1 H -0.91676 1.95016 3.9856
185 1 H 0.188603 1.34414 2.65051
186 1 H 0.907661 2.35119 4.00599
187 1 H 17.5595 3.06453 1.87045
188 1 H 0.421605 3.4638 1.68792
189 1 H -0.643985 5.28188 2.50724
190 2 C 6.22946 -0.151278 8.35751
191 2 C 6.83644 1.16847 8.0776
192 4 O 6.31893 2.20115 8.95142
193 1 H 6.42792 -0.95947 7.64509
194 1 H 6.49888 -0.531139 9.34727
195 1 H 5.12754 -0.0671764 8.42491
196 1 H 6.57868 1.49931 7.06298
197 1 H 7.90227 1.08856 8.19001
198 1 H 6.88148 2.2361 9.72041
199 2 C 11.093 15.8223 15.4585
200 2 C 10.4804 15.7855 14.0715
201 4 O 10.9492 14.6578 13.4558
202 1 H 10.7054 16.7274 15.9753
203 1 H 10.7118 15.0038 16.0621
204 1 H 12.1822 15.8431 15.4113
205 1 H 10.7044 16.7234 13.5318
206 1 H 9.38675 15.713 14.1703
207 1 H 11.581 14.7417 12.7484
208 2 C 6.69186 8.76763 0.740612
209 2 C 6.28468 9.65864 1.91364
210 4 O 4.91232 9.5002 2.43006
211 1 H 6.04164 8.88893 -0.106541
212 1 H 7.68947 8.98483 0.373325
213 1 H 6.64276 7.7 1.00326
214 1 H 6.33882 10.6589 1.53446
215 1 H 6.96946 9.56897 2.76024
216 1 H 4.7835 8.5808 2.70671
217 2 C -0.74292 9.08088 13.6798
218 2 C 16.8864 9.66152 14.38
219 4 O 15.7474 9.26841 13.6389
220 1 H -0.799239 8.06723 14.0053
221 1 H -0.826756 9.16773 12.596
222 1 H 0.175667 9.53622 14.1312
223 1 H 16.8351 10.7969 14.4375
224 1 H 16.7954 9.32104 15.4139
225 1 H 15.7043 8.31258 13.6189
226 2 C 14.2392 3.16989 3.92155
227 2 C 14.4768 4.58609 3.42797
228 4 O 15.3887 5.27346 4.24204
229 1 H 15.1391 2.53529 3.70259
230 1 H 14.0663 3.1853 5.00171
231 1 H 13.3466 2.74447 3.53976
232 1 H 13.5888 5.21453 3.38637
233 1 H 14.8158 4.47351 2.36356
234 1 H 16.0615 4.75897 4.67964
235 2 C 1.30424 17.0753 2.1428
236 2 C -0.0383798 16.4655 1.73718
237 4 O -0.889396 16.7063 2.79769
238 1 H 1.19216 -0.727868 2.49756
239 1 H 1.86072 16.5324 2.90994
240 1 H 1.94482 17.2945 1.25879
241 1 H 0.0535576 15.4078 1.45056
242 1 H -0.466547 17.0865 0.931384
243 1 H -0.636875 4.01599 5.19166
244 2 C 13.0399 16.5812 7.33896
245 2 C 12.3339 17.8994 6.77233
246 4 O 11.0109 17.5234 6.26395
247 1 H 14.0089 16.8948 7.56254
248 1 H 12.6816 16.2948 8.43378
249 1 H 12.9514 15.7553 6.74463
250 1 H 12.6829 -0.642582 5.7955
251 1 H 12.2885 -0.24763 7.54615
252 1 H 10.5916 -0.553684 5.98136
253 2 C 1.32705 5.04646 -0.683337
254 2 C 0.254328 6.08468 -0.778542
255 4 O -0.603493 5.66333 16.9886
256 1 H 2.11667 5.23011 0.036603
257 1 H 0.777764 4.09339 -0.579915
258 1 H 1.88423 5.08186 17.2742
259 1 H 0.586186 7.0338 -1.10858
260 1 H -0.341228 6.17062 0.107876
261 1 H 17.6351 6.33694 16.9267
262 2 C -0.514741 13.6213 5.25811
263 2 C -0.124513 13.0311 3.95079
264 4 O 1.31605 13.2404 3.84784
265 1 H 0.0575964 13.2454 6.11584
266 1 H -0.282427 14.6815 5.24013
267 1 H 17.3062 13.4881 5.37929
268 1 H -0.696388 13.4916 3.13954
269 1 H -0.237079 11.9408 3.83039
270 1 H 1.6068 12.8061 3.05335
271 2 C 15.4029 2.12377 -0.0284678
272 2 C 15.5751 3.45034 -0.789722
273 4 O 14.5685 3.39536 17.0889
274 1 H 15.2283 1.29219 -0.736007
275 1 H 16.184 1.90988 0.728939
276 1 H 14.4923 2.30154 0.521937
277 1 H 16.5313 3.56376 17.551
278 1 H 15.3807 4.38084 -0.199284
279 1 H 14.5086 4.16293 16.5134
280 2 C 11.4685 1.2327 11.2494
281 2 C 10.1198 0.448523 11.2386
282 4 O 9.09212 1.16985 10.5871
283 1 H 11.4315 2.2853 11.5057
284 1 H 12.2103 0.663464 11.8139
285 1 H 11.7928 1.20039 10.2156
286 1 H 9.86244 0.297137 12.2739
287 1 H 10.2059 -0.535407 10.7551
288 1 H 8.61597 1.73806 11.1982
289 2 C 7.78956 5.62398 10.7673
290 2 C 8.34672 4.59957 11.7267
291 4 O 7.49071 3.50093 11.9403
292 1 H 6.74504 5.78508 11.066
293 1 H 8.33145 6.57853 10.8427
294 1 H 7.78039 5.24907 9.75977
295 1 H 8.59859 5.11169 12.6922
296 1 H 9.24181 4.29949 11.2354
297 1 H 6.56036 3.79541 11.938
298 2 C 13.3591 8.29205 6.19522
299 2 C 13.6479 9.6637 6.71072
300 4 O 12.7044 9.87688 7.81275
301 1 H 14.1953 7.76801 5.73798
302 1 H 12.9863 7.67625 7.01966
303 1 H 12.5757 8.34366 5.40437
304 1 H 13.6106 10.4619 5.98166
305 1 H 14.6072 9.61546 7.18759
306 1 H 11.7888 9.86819 7.4928
307 2 C 11.8046 11.3485 14.8006
308 2 C 12.8865 10.3267 14.6009
309 4 O 12.5495 9.15531 13.7903
310 1 H 10.9879 11.0417 15.4583
311 1 H 12.2812 12.2164 15.2884
312 1 H 11.3093 11.6864 13.8703
313 1 H 13.1796 9.91422 15.5828
314 1 H 13.7688 10.8064 14.1929
315 1 H 13.1364 9.1694 13.0243
316 2 C 4.22243 10.5769 6.69705
317 2 C 2.79786 10.31 7.09282
318 4 O 2.13233 11.5274 7.323
319 1 H 4.27767 11.407 5.9844
320 1 H 4.70093 10.8773 7.62521
321 1 H 4.6959 9.68004 6.30231
322 1 H 2.78205 9.80921 8.03265
323 1 H 2.22982 9.71983 6.35269
324 1 H 2.5307 12.2206 6.75645
325 2 C -0.499526 -0.965689 10.8288
326 2 C -0.510455 0.144007 11.8438
327 4 O -0.0797296 -0.335115 13.0857
328 1 H 17.6172 17.1801 11.1345
329 1 H -0.619606 -0.514906 9.80739
330 1 H 0.412294 17.3829 10.9072
331 1 H 17.3903 0.656259 11.916
332 1 H 0.161739 0.922231 11.5061
333 1 H -0.469148 0.2098 13.7776
334 2 C 1.46716 6.23856 14.4079
335 2 C 1.7775 4.80356 14.5614
336 4 O 0.608347 4.04449 14.8087
337 1 H 2.28011 6.77211 14.0144
338 1 H 0.653502 6.39884 13.6674
339 1 H 1.18178 6.70786 15.3217
340 1 H 2.47002 4.61046 15.4043
341 1 H 2.21022 4.31472 13.6744
342 1 H 0.287403 4.61029 15.5208
343 2 C 8.47349 13.4316 16.4741
344 2 C 7.21901 13.0224 17.3639
345 4 O 7.08285 11.6319 17.7568
346 1 H 8.67988 14.4592 16.3945
347 1 H 9.41501 12.9267 16.8225
348 1 H 8.15306 13.3916 15.4254
349 1 H 6.26088 13.3133 16.9513
350 1 H 7.30824 13.4963 -0.511269
351 1 H 7.735 11.0498 17.3747
352 2 C 3.64419 0.840079 12.5792
353 2 C 4.43935 2.13426 12.9439
354 4 O 4.75056 2.75615 11.7324
355 1 H 4.3102 0.104547 12.1196
356 1 H 3.05949 0.392965 13.3721
357 1 H 2.89725 1.09799 11.7898
358 1 H 5.30293 2.01069 13.6123
359 1 H 3.76113 2.87173 13.3533
360 1 H 5.20423 2.15404 11.1414
361 2 C 9.95592 14.7691 8.42337
362 2 C 10.7788 14.5953 9.714
363 4 O 10.3374 13.5292 10.5812
364 1 H 8.87942 14.6524 8.66262
365 1 H 10.1424 15.786 8.0688
366 1 H 10.1841 14.0695 7.61777
367 1 H 10.8672 15.6049 10.1216
368 1 H 11.8198 14.3056 9.41393
369 1 H 9.67653 13.937 11.1752
370 2 C 12.5521 7.85636 10.5284
371 2 C 12.2586 6.43234 10.2443
372 4 O 10.8602 6.12952 9.97705
373 1 H 11.7459 8.21274 11.1867
374 1 H 13.5133 8.02136 11.0685
375 1 H 12.5035 8.45385 9.65335
376 1 H 12.4313 5.78385 11.0936
377 1 H 12.8003 6.07995 9.36495
378 1 H 10.6046 6.12232 9.03809
379 2 C 1.81453 8.47682 2.434
380 2 C 2.09868 7.01274 2.35323
381 4 O 3.39408 6.67671 1.90793
382 1 H 1.8254 8.95395 1.45354
383 1 H 0.835941 8.73198 2.84606
384 1 H 2.62539 9.00038 2.93798
385 1 H 1.34044 6.51328 1.69165
386 1 H 1.98058 6.54815 3.31079
387 1 H 3.51284 7.30318 1.19644
388 2 C 14.3708 12.031 11.2673
389 2 C 13.5709 12.6782 12.4002
390 4 O 13.0643 13.926 11.8914
391 1 H 15.1299 12.7337 10.9372
392 1 H 14.8597 11.0802 11.4778
393 1 H 13.7085 11.8504 10.4274
394 1 H 14.1816 12.8261 13.3093
395 1 H 12.7097 12.0378 12.6765
396 1 H 12.4059 13.644 11.1957
397 2 C 0.36294 12.2245 12.4828
398 2 C 1.86063 12.3896 12.6956
399 4 O 2.42561 11.1715 13.1054
400 1 H -0.224332 12.214 13.394
401 1 H -0.0199102 12.9604 11.7571
402 1 H 0.245007 11.2579 12.0668
403 1 H 2.05848 13.2122 13.3657
404 1 H 2.2762 12.6636 11.726
405 1 H 3.38801 11.1191 13.0705
406 2 C 2.32568 10.3286 16.8313
407 2 C 3.62613 9.88937 17.5212
408 4 O 4.78232 10.2813 16.7013
409 1 H 2.26574 11.381 16.6129
410 1 H 2.20107 9.8212 15.8988
411 1 H 1.5217 9.88149 17.4323
412 1 H 3.70525 8.76812 17.4287
413 1 H 3.67586 10.1896 -0.340392
414 1 H 5.18338 10.9991 17.1632
415 2 C 9.76739 5.38634 5.40395
416 2 C 9.1853 6.51573 6.25458
417 4 O 9.93961 6.70995 7.42849
418 1 H 9.73777 4.40915 5.86404
419 1 H 9.05542 5.2882 4.55695
420 1 H 10.7805 5.56751 5.00775
421 1 H 8.13919 6.27538 6.49765
422 1 H 9.21616 7.45095 5.68809
423 1 H 9.68673 7.47444 7.96661
424 2 C 3.80881 14.0481 1.48986
425 2 C 4.29679 12.6946 2.01043
426 4 O 3.32939 11.7371 1.66449
427 1 H 3.53356 13.9976 0.480897
428 1 H 2.85077 14.4112 1.96668
429 1 H 4.58267 14.8622 1.51588
430 1 H 4.51595 12.7383 3.11057
431 1 H 5.17824 12.4387 1.45812
432 1 H 3.78119 10.8825 1.82088
433 2 C 1.35079 4.00685 7.62945
434 2 C -0.140164 3.60198 7.34616
435 4 O -0.640821 4.24966 6.14083
436 1 H 1.50713 5.01547 7.22062
437 1 H 1.67606 3.90931 8.67478
438 1 H 1.89583 3.21433 7.13247
439 1 H -0.882649 4.00786 8.10389
440 1 H -0.275027 2.55993 7.14507
441 1 H -0.551037 5.24889 6.324
442 2 C 13.6908 7.32775 17.6061
443 2 C 15.0468 7.97769 17.2309
444 4 O 16.068 6.98781 17.22
445 1 H 12.9267 8.09121 17.6551
446 1 H 13.2502 6.50214 17.0179
447 1 H 13.7093 7.08287 -0.24888
448 1 H 15.1894 8.74906 17.9823
449 1 H 15.0043 8.45854 16.2268
450 1 H 15.6837 6.31522 16.6751
ITEM: TIMESTEP
8000
ITEM: NUMBER OF ATOMS
450
ITEM: BOX BOUNDS pp pp pp
-1.0218028066789895e+00 1.7946802806678846e+01
-1.0218028066789895e+00 1.7946802806678846e+01
-1.0218028066789895e+00 1.7946802806678846e+01
ITEM: ATOMS id type element x y z
1 2 C 5.7931 5.78321 16.2833
2 2 C 5.56703 4.24567 16.3358
3 4 O 4.28196 3.88845 16.8406
4 1 H 5.20643 6.19541 15.4394
5 1 H 5.4364 6.20578 17.2331
6 1 H 6.8365 6.00823 16.0668
7 1 H 6.32623 3.79597 16.966
8 1 H 5.64715 3.88014 15.3064
9 1 H 4.25658 2.93489 17.0156
10 2 C 10.0013 15.2809 0.72786
11 2 C 11.1829 14.558 1.25005
12 4 O 12.0106 14.115 0.188298
13 1 H 9.47852 14.6859 0.0113927
14 1 H 9.20917 15.5372 1.42848
15 1 H 10.2548 16.1373 0.141205
16 1 H 10.8898 13.6606 1.7548
17 1 H 11.7554 15.1514 1.91865
18 1 H 12.3927 14.9141 -0.194212
19 2 C 10.2349 6.91923 0.287208
20 2 C 9.80919 7.74643 -0.896348
21 4 O 10.288 9.11087 -0.720852
22 1 H 9.97664 7.39924 1.23876
23 1 H 9.99294 5.90186 0.0735956
24 1 H 11.3314 7.05384 0.282247
25 1 H 8.74009 7.78958 -1.17074
26 1 H 10.3057 7.22163 17.2434
27 1 H 10.1972 9.64813 17.4855
28 2 C 17.6133 6.13037 10.4901
29 2 C -0.633627 7.41513 10.1913
30 4 O 0.675306 7.29008 9.51909
31 1 H -0.704493 5.48142 11.0676
32 1 H 16.7569 6.4457 11.076
33 1 H 17.3198 5.63857 9.56526
34 1 H -0.497867 8.05719 11.0947
35 1 H 17.7272 8.03236 9.47363
36 1 H 1.38474 7.49127 10.1407
37 2 C 1.57093 15.7277 14.5268
38 2 C 2.85979 16.1482 13.852
39 4 O 3.95913 15.8748 14.2839
40 1 H 1.89132 15.5012 15.4883
41 1 H 0.848233 16.5627 14.6085
42 1 H 1.09995 14.8534 14.0456
43 1 H 2.68768 16.7387 12.86
44 1 H 17.8625 15.8245 3.17248
45 1 H 4.38802 3.9417 9.14326
46 2 C 7.94921 14.1959 4.40781
47 2 C 7.31739 12.816 4.78011
48 4 O 8.02859 11.6371 4.36104
49 1 H 7.2979 15.003 4.78887
50 1 H 8.93913 14.3096 4.86288
51 1 H 8.12512 14.2752 3.32293
52 1 H 6.31832 12.8322 4.33698
53 1 H 7.23554 12.7341 5.85735
54 1 H 8.93027 11.9055 4.15674
55 2 C 16.4717 5.05628 13.8878
56 2 C 14.8982 4.8846 14.05
57 4 O 14.451 5.45312 15.3365
58 1 H 17.0649 4.37773 14.5528
59 1 H 16.7544 4.74578 12.8762
60 1 H 16.9315 6.03996 14.1443
61 1 H 14.7529 3.81143 14.1595
62 1 H 14.3362 5.35951 13.311
63 1 H 13.6598 5.98641 15.1492
64 2 C 9.03844 11.2438 7.63466
65 2 C 10.0387 10.991 8.7621
66 4 O 10.3017 9.60183 8.81756
67 1 H 8.50348 10.3486 7.32026
68 1 H 8.43471 12.0988 7.89853
69 1 H 9.55325 11.5802 6.72998
70 1 H 9.60017 11.3304 9.6854
71 1 H 10.8999 11.6141 8.5788
72 1 H 10.235 9.21044 9.68548
73 2 C 4.54352 3.09316 5.93336
74 2 C 4.79039 4.44866 6.5939
75 4 O 6.03797 4.5713 7.26124
76 1 H 4.37858 2.31582 6.66533
77 1 H 3.72161 3.14392 5.23637
78 1 H 5.52146 2.96752 5.45477
79 1 H 3.97309 4.72929 7.28468
80 1 H 4.73099 5.25867 5.87648
81 1 H 6.15807 3.72425 7.72531
82 2 C 6.19401 9.84045 12.2799
83 2 C 5.76404 9.86724 13.6771
84 4 O 5.09858 11.0836 13.9494
85 1 H 5.3453 9.82015 11.5952
86 1 H 6.8532 10.6858 12.0937
87 1 H 6.81476 9.00239 12.1358
88 1 H 6.69161 9.79343 14.2619
89 1 H 5.18614 8.97301 13.9243
90 1 H 4.89048 11.1991 14.8822
91 2 C 11.4052 4.4298 15.4941
92 2 C 11.2671 5.48405 14.3234
93 4 O 12.3157 6.53513 14.4282
94 1 H 12.3945 3.99822 15.556
95 1 H 11.329 5.00916 16.4685
96 1 H 10.6574 3.69484 15.3409
97 1 H 10.3404 6.07471 14.4686
98 1 H 11.1428 4.9608 13.3604
99 1 H 11.9895 7.38231 14.7919
100 2 C 5.54962 13.4125 11.6609
101 2 C 6.66643 13.782 10.6938
102 4 O 7.67136 14.6016 11.2838
103 1 H 5.04148 14.2907 12.0333
104 1 H 4.86803 12.7385 11.1146
105 1 H 5.95235 12.9696 12.5679
106 1 H 6.19884 14.357 9.88766
107 1 H 7.17915 12.9212 10.3497
108 1 H 7.29183 15.1222 11.9935
109 2 C 4.69264 15.338 7.2602
110 2 C 3.43287 14.9267 6.53829
111 4 O 3.63853 13.6379 6.06518
112 1 H 4.81178 14.8875 8.24727
113 1 H 5.69631 15.2039 6.77781
114 1 H 4.60527 16.4051 7.40317
115 1 H 3.12668 15.6507 5.77832
116 1 H 2.58598 14.9952 7.24167
117 1 H 2.88571 13.3261 5.53761
118 2 C 5.00786 7.41887 9.28258
119 2 C 4.18684 6.4858 10.1167
120 4 O 3.22858 7.31188 10.7305
121 1 H 5.59193 8.03434 9.95343
122 1 H 5.79018 6.98323 8.66134
123 1 H 4.3664 8.04463 8.68095
124 1 H 4.81452 5.9191 10.877
125 1 H 3.60111 5.72198 9.66316
126 1 H 3.64559 7.96683 11.3074
127 2 C 7.31814 -0.347874 14.1569
128 2 C 7.03154 17.291 13.4906
129 4 O 6.58627 16.242 14.3504
130 1 H 7.8042 0.416724 13.4736
131 1 H 6.45357 0.218018 14.5402
132 1 H 7.98765 -0.48625 14.9711
133 1 H 7.95002 16.903 13.0039
134 1 H 6.272 17.4927 12.7012
135 1 H 5.69121 16.051 14.0601
136 2 C 11.5648 12.368 4.85487
137 2 C 12.3147 13.5426 5.36035
138 4 O 12.3325 14.6669 4.43147
139 1 H 12.0937 11.7413 4.11126
140 1 H 11.329 11.6972 5.64564
141 1 H 10.6638 12.5938 4.34799
142 1 H 13.367 13.3464 5.6596
143 1 H 11.8774 13.9231 6.30846
144 1 H 12.0588 15.4806 4.85733
145 2 C 5.43508 17.7085 -0.944302
146 2 C 6.9361 -0.916908 -0.773625
147 4 O 7.73313 17.0022 17.6489
148 1 H 4.8133 -0.400962 -0.922222
149 1 H 5.16445 17.3704 16.9677
150 1 H 5.26425 17.0729 -0.135218
151 1 H 7.29094 -0.753593 0.313541
152 1 H 7.18298 0.00397022 17.6712
153 1 H 7.80651 17.091 16.675
154 2 C 0.127093 0.342049 16.8555
155 2 C -0.574175 1.62401 16.4219
156 4 O -0.806204 1.66031 14.9751
157 1 H 1.12262 0.220008 16.471
158 1 H 0.201023 0.465384 17.9495
159 1 H -0.376215 -0.596667 16.6437
160 1 H 0.0242159 2.47934 16.6736
161 1 H 17.4583 1.68307 16.9533
162 1 H -0.468654 2.53982 14.6862
163 2 C 17.483 9.07804 6.617
164 2 C 17.1464 7.62447 6.67595
165 4 O -0.624333 6.87225 6.6503
166 1 H 17.8513 9.30626 5.6266
167 1 H 16.6173 9.68786 6.85598
168 1 H -0.681442 9.34358 7.31746
169 1 H 16.581 7.26326 5.86767
170 1 H 16.5735 7.36362 7.60265
171 1 H -0.070275 7.15605 7.4045
172 2 C 14.1887 9.31479 2.68721
173 2 C 12.7757 9.06082 2.07153
174 4 O 11.6972 9.44978 2.99544
175 1 H 14.3182 10.3355 3.1131
176 1 H 14.3102 8.60369 3.50708
177 1 H 15.0573 9.22822 2.01096
178 1 H 12.6411 8.05133 1.71518
179 1 H 12.6434 9.72687 1.21513
180 1 H 10.964 8.85937 2.74683
181 2 C -0.0118253 2.1607 3.28798
182 2 C 0.123955 3.46188 2.5418
183 4 O -0.200719 4.56899 3.43339
184 1 H -1.0328 1.96122 3.69145
185 1 H 0.149233 1.33283 2.61482
186 1 H 0.831173 2.05451 3.95452
187 1 H -0.608068 3.62841 1.73846
188 1 H 1.13675 3.71767 2.13643
189 1 H 17.8141 4.65496 3.48674
190 2 C 5.93933 -0.110373 8.57102
191 2 C 6.83541 1.10384 8.21694
192 4 O 6.4746 2.29528 8.90185
193 1 H 6.37365 17.9124 8.29577
194 1 H 5.70559 -0.247132 9.61036
195 1 H 4.97053 -0.0571168 8.06031
196 1 H 6.845 1.30692 7.15311
197 1 H 7.88817 0.848353 8.47084
198 1 H 7.12255 2.48661 9.56659
199 2 C 11.2573 15.8108 15.4213
200 2 C 10.5753 15.715 14.0445
201 4 O 10.7528 14.4168 13.3831
202 1 H 10.674 16.499 16.0131
203 1 H 11.0905 14.801 15.8488
204 1 H 12.3312 16.0134 15.3913
205 1 H 10.8507 16.5256 13.3675
206 1 H 9.50696 15.8078 14.1958
207 1 H 11.6183 14.3224 12.957
208 2 C 6.55172 8.55157 0.945215
209 2 C 6.17575 9.70626 1.91586
210 4 O 5.05247 9.30772 2.63178
211 1 H 5.83944 8.50905 0.0923952
212 1 H 7.58273 8.5077 0.58706
213 1 H 6.40009 7.61544 1.50022
214 1 H 6.11773 10.5884 1.32415
215 1 H 7.03179 9.9799 2.59213
216 1 H 5.02309 8.35186 2.56668
217 2 C -0.983453 9.14944 13.7115
218 2 C 16.7255 9.9277 14.0773
219 4 O 15.5673 9.07447 13.9765
220 1 H 17.8828 8.18188 14.1829
221 1 H -0.716072 9.14238 12.6429
222 1 H -0.227542 9.68931 14.2555
223 1 H 16.5605 10.825 13.4086
224 1 H 16.7436 10.3298 15.0755
225 1 H 15.7898 8.36135 14.5786
226 2 C 14.0555 3.02723 3.75181
227 2 C 14.3345 4.38504 3.17781
228 4 O 15.2533 5.19947 3.95716
229 1 H 14.9565 2.57261 4.07917
230 1 H 13.343 3.03926 4.58014
231 1 H 13.5702 2.44169 2.92978
232 1 H 13.4564 4.94321 2.81313
233 1 H 14.7996 4.16282 2.23688
234 1 H 15.4074 4.81314 4.83312
235 2 C 1.33917 17.255 2.22775
236 2 C -0.00404896 16.7498 1.85631
237 4 O 17.9351 16.7647 2.95796
238 1 H 1.41412 -0.723749 2.49701
239 1 H 1.86266 16.6044 2.9236
240 1 H 1.9762 17.2259 1.37196
241 1 H 0.0439587 15.7953 1.34831
242 1 H -0.502636 17.4495 1.16448
243 1 H -0.501428 4.43809 5.30453
244 2 C 12.8665 16.8433 7.57216
245 2 C 12.4186 -1.00876 6.78114
246 4 O 11.0553 17.765 6.67856
247 1 H 13.8523 17.0121 8.00748
248 1 H 12.2442 16.7458 8.45199
249 1 H 12.9039 15.9131 6.81557
250 1 H 12.7929 18.0097 5.7667
251 1 H 12.5994 0.0255013 7.19526
252 1 H 10.7637 -0.568139 6.04363
253 2 C 1.25303 4.69411 -0.64856
254 2 C 0.418993 5.91773 -0.967308
255 4 O -0.594862 5.51286 17.0827
256 1 H 1.96579 5.10943 0.0409608
257 1 H 0.609859 3.84963 -0.347111
258 1 H 1.8728 4.49109 17.4692
259 1 H 0.992692 6.77904 17.5533
260 1 H -0.00923679 6.2576 0.0064721
261 1 H 17.5547 6.02652 17.3833
262 2 C -0.350393 13.5993 5.47056
263 2 C -0.0209231 13.2705 4.01622
264 4 O 1.32796 13.3893 3.74964
265 1 H 0.277436 12.9569 6.13437
266 1 H -0.210836 14.6568 5.62168
267 1 H 17.6092 13.2958 5.73132
268 1 H -0.561131 14.0054 3.39388
269 1 H -0.292304 12.2872 3.69773
270 1 H 1.51758 12.972 2.87527
271 2 C 15.1761 2.24983 -0.0444901
272 2 C 15.4947 3.40172 -0.909219
273 4 O 14.4152 3.61929 17.2319
274 1 H 15.2847 1.29289 -0.551359
275 1 H 15.8821 2.31451 0.794312
276 1 H 14.2294 2.45934 0.399987
277 1 H 16.3838 3.22984 17.5055
278 1 H 15.6243 4.25998 -0.277783
279 1 H 14.4248 4.39148 16.6344
280 2 C 11.2175 1.15393 11.3489
281 2 C 10.0568 0.213093 11.2421
282 4 O 8.82665 0.961409 10.9701
283 1 H 11.1241 1.8978 12.1704
284 1 H 12.1466 0.586093 11.5233
285 1 H 11.3306 1.70576 10.4312
286 1 H 10.0554 -0.483773 12.1112
287 1 H 10.1855 -0.414096 10.3501
288 1 H 8.65498 1.79955 11.4307
289 2 C 7.69362 5.65499 10.6882
290 2 C 8.21273 4.78879 11.8825
291 4 O 7.83713 3.38655 11.7419
292 1 H 6.90776 6.31471 11.0147
293 1 H 8.43823 6.33195 10.2406
294 1 H 7.29473 5.00043 9.92639
295 1 H 7.88634 5.18344 12.8222
296 1 H 9.29739 4.84374 11.8492
297 1 H 6.87316 3.37638 11.7898
298 2 C 13.4013 8.21437 6.02769
299 2 C 13.7299 9.52992 6.68456
300 4 O 12.953 9.9563 7.7551
301 1 H 14.2081 7.9226 5.37602
302 1 H 13.3607 7.42021 6.78303
303 1 H 12.4332 8.16104 5.54168
304 1 H 13.7616 10.3581 5.91893
305 1 H 14.786 9.44625 7.00253
306 1 H 12.0845 9.60247 7.71367
307 2 C 11.688 11.3481 15.1231
308 2 C 12.7253 10.2265 15.0059
309 4 O 12.3067 9.43951 13.8607
310 1 H 10.902 11.0362 15.7858
311 1 H 12.1156 12.2294 15.5372
312 1 H 11.1962 11.5301 14.171
313 1 H 12.8798 9.64179 15.8923
314 1 H 13.6782 10.736 14.7591
315 1 H 13.088 8.93601 13.6798
316 2 C 3.93777 10.5158 5.98774
317 2 C 2.68311 10.1245 6.77161
318 4 O 1.92355 11.2083 7.33602
319 1 H 3.72546 10.7434 4.94727
320 1 H 4.44243 11.3232 6.49831
321 1 H 4.57452 9.63693 6.03935
322 1 H 2.96596 9.36031 7.5409
323 1 H 1.98692 9.6194 6.09778
324 1 H 2.59038 11.7405 7.73173
325 2 C -0.816997 17.7211 11.0327
326 2 C -0.562161 -0.00389997 11.8463
327 4 O -0.204705 -0.536887 13.1826
328 1 H 17.3588 17.1695 11.5589
329 1 H 17.9434 -0.965674 10.0204
330 1 H 0.119806 17.1603 10.8875
331 1 H 17.48 0.547947 11.9811
332 1 H 0.21099 0.6663 11.4212
333 1 H -0.403587 0.117347 13.881
334 2 C 1.49415 6.5377 14.3886
335 2 C 1.72483 4.99478 14.5275
336 4 O 0.597511 4.25657 15.0114
337 1 H 2.4917 7.03785 14.2544
338 1 H 0.770352 6.76824 13.5827
339 1 H 1.15966 7.05408 15.3129
340 1 H 2.6254 4.78294 15.0856
341 1 H 1.96358 4.55081 13.5355
342 1 H 0.174964 4.85049 15.6523
343 2 C 8.60227 13.2502 16.8291
344 2 C 7.42263 12.9534 17.619
345 4 O 7.10215 11.5394 17.4677
346 1 H 8.53592 14.3353 16.4339
347 1 H 9.51902 13.1663 17.3062
348 1 H 8.59253 12.6934 15.8682
349 1 H 6.51966 13.4459 17.2548
350 1 H 7.60355 13.1369 -0.305795
351 1 H 7.861 11.0176 17.2103
352 2 C 3.93412 0.905837 12.2157
353 2 C 4.52285 2.11901 12.805
354 4 O 4.91434 3.17356 11.8762
355 1 H 4.44527 0.573262 11.3185
356 1 H 4.11229 0.166001 12.9847
357 1 H 2.85512 0.94294 11.989
358 1 H 5.45417 1.77184 13.2309
359 1 H 3.94519 2.57561 13.5997
360 1 H 4.87498 2.78372 10.9764
361 2 C 9.82183 14.8565 8.37948
362 2 C 10.8448 14.5423 9.50621
363 4 O 10.4103 13.5026 10.3538
364 1 H 9.01965 15.5852 8.58603
365 1 H 10.3118 15.3463 7.53349
366 1 H 9.37055 13.9265 8.07181
367 1 H 11.092 15.4628 10.0553
368 1 H 11.7771 14.2443 9.06814
369 1 H 9.64067 13.8164 10.8201
370 2 C 12.5712 7.70715 10.5298
371 2 C 12.1326 6.24017 10.3867
372 4 O 10.8931 6.09916 9.75185
373 1 H 11.894 8.27125 11.1989
374 1 H 13.446 7.64691 11.1067
375 1 H 12.7319 8.29663 9.62761
376 1 H 11.9181 5.80626 11.3505
377 1 H 12.9151 5.56899 9.95309
378 1 H 10.8832 6.37671 8.81254
379 2 C 1.92853 8.57107 2.44094
380 2 C 2.18454 7.12598 2.0804
381 4 O 3.51339 6.79638 1.6559
382 1 H 2.15649 9.29294 1.63046
383 1 H 0.855984 8.65803 2.63153
384 1 H 2.48631 8.93213 3.30063
385 1 H 1.46464 6.82577 1.34876
386 1 H 2.0504 6.51762 2.96691
387 1 H 3.65695 7.41239 0.925598
388 2 C 14.887 12.188 11.5346
389 2 C 13.656 12.6823 12.3138
390 4 O 12.9013 13.8225 11.845
391 1 H 15.6663 12.9303 11.4126
392 1 H 15.2716 11.4543 12.2341
393 1 H 14.8105 11.6327 10.5756
394 1 H 14.0492 12.9428 13.2675
395 1 H 12.9648 11.8513 12.429
396 1 H 12.2212 13.4399 11.2966
397 2 C 0.546561 12.2752 12.3536
398 2 C 2.0303 12.2109 12.7123
399 4 O 2.20781 11.3937 13.8731
400 1 H -0.0749155 12.3683 13.2332
401 1 H 0.375683 13.0407 11.6391
402 1 H 0.27946 11.2695 11.9069
403 1 H 2.38796 13.2565 12.8039
404 1 H 2.54528 11.804 11.8383
405 1 H 2.9755 10.8031 13.7517
406 2 C 2.18516 10.2904 16.8353
407 2 C 3.45214 9.9189 17.5435
408 4 O 4.58387 10.2717 16.6948
409 1 H 2.0506 11.3653 16.7106
410 1 H 2.25484 9.89456 15.8168
411 1 H 1.33316 9.79632 17.3191
412 1 H 3.5809 8.86542 17.7152
413 1 H 3.56391 10.291 -0.379456
414 1 H 5.16231 10.8258 17.2769
415 2 C 9.70309 5.0085 5.65176
416 2 C 9.11649 6.27966 6.23322
417 4 O 10.0791 7.01309 7.08078
418 1 H 9.40881 4.14624 6.26646
419 1 H 9.4338 4.73629 4.63955
420 1 H 10.7887 5.10499 5.76366
421 1 H 8.22186 6.07727 6.8206
422 1 H 8.7737 7.01513 5.48741
423 1 H 9.75328 7.85951 7.41309
424 2 C 3.97105 13.9785 1.34454
425 2 C 4.36395 12.6421 1.89256
426 4 O 3.42219 11.6643 1.55158
427 1 H 4.12892 14.1382 0.242346
428 1 H 2.93248 14.1804 1.49532
429 1 H 4.6157 14.7514 1.66968
430 1 H 4.37483 12.735 2.96599
431 1 H 5.31045 12.323 1.44286
432 1 H 3.79833 10.8079 1.78091
433 2 C 1.03995 4.06798 7.40172
434 2 C -0.403986 3.68602 7.21105
435 4 O -1.02368 4.38438 6.14315
436 1 H 1.05325 5.13585 7.42303
437 1 H 1.23334 3.7942 8.4511
438 1 H 1.73818 3.51838 6.78921
439 1 H 18.0579 3.89875 8.12084
440 1 H -0.590725 2.6705 6.79535
441 1 H 17.8894 5.37199 6.43999
442 2 C 13.5136 7.41861 17.8448
443 2 C 14.7696 8.10186 17.4424
444 4 O 15.7933 7.15206 17.0416
445 1 H 12.6894 7.95962 -0.67716
446 1 H 13.092 6.89638 16.9734
447 1 H 13.8566 6.74037 -0.332004
448 1 H 15.1583 8.67809 -0.680266
449 1 H 14.6328 8.7707 16.6101
450 1 H 15.4402 6.55687 16.3156
