Job started at Fri Sep 11 13:52:21 MDT 2026
  Job Id: 15531350
  Hostname: notch003
  Input file: /uufs/chpc.utah.edu/common/home/u0253283/TestBench/Chem/lammps-mace/v100/in.mace_off23.lammps
  #Threads: 4\NINFO:    gocryptfs not found, will not be able to use gocryptfs
LAMMPS (10 Sep 2025)
OMP_NUM_THREADS environment is not set. Defaulting to 1 thread.
  using 1 OpenMP thread(s) per MPI task
Reading data file ...
  orthogonal box = (0 0 0) to (16.925 16.925 16.925)
  1 by 1 by 1 MPI processor grid
  reading atoms ...
  450 atoms
  read_data CPU = 0.015 seconds
CUDA found, setting device type to torch::kCUDA.
Loading MACE model from "MACE-OFF23_medium.model-lammps.pt" ... finished.
  - The torch_float_dtype is: Double
  - The r_max is: 5.
  - The model has: 2 layers.
  - The MACE model atomic numbers are: 1 6 7 8 9 15 16 17 35 53.
  - The pair_coeff atomic numbers are: 1 6 7 8.
  - Mapping LAMMPS type 1 (H) to MACE type 1.
  - Mapping LAMMPS type 2 (C) to MACE type 2.
  - Mapping LAMMPS type 3 (N) to MACE type 3.
  - Mapping LAMMPS type 4 (O) to MACE type 4.
Generated 0 of 6 mixed pair_coeff terms from geometric mixing rule
Neighbor list info ...
  update: every = 1 steps, delay = 0 steps, check = yes
  max neighbors/atom: 2000, page size: 100000
  master list distance cutoff = 12
  ghost atom cutoff = 12
  binsize = 6, bins = 3 3 3
  1 neighbor lists, perpetual/occasional/extra = 1 0 0
  (1) pair mace, perpetual
      attributes: full, newton on
      pair build: full/bin/atomonly
      stencil: full/bin/3d
      bin: standard
Setting up cg style minimization ...
  Unit style    : metal
  Current step  : 0
Per MPI rank memory allocation (min/avg/max) = 5.681 | 5.681 | 5.681 Mbytes
   Step          Temp          PotEng         KinEng         TotEng         Press          Volume        Density    
         0   0              4131202        0              4131202        9.0222892e+08  4848.2615      0.78893608   
        10   0             -211025.94      0             -211025.94      39336.066      4848.2615      0.78893608   
        13   0             -211028.24      0             -211028.24      44256.404      4848.2615      0.78893608   
Loop time of 57.7568 on 1 procs for 13 steps with 450 atoms

97.8% CPU use with 1 MPI tasks x 1 OpenMP threads

Minimization stats:
  Stopping criterion = energy tolerance
  Energy initial, next-to-last, final = 
      4131202.01730513  -211028.176952283  -211028.244470991
  Force two-norm initial, final = 1.8331115e+08 42.367849
  Force max component initial, final = 1.1869868e+08 17.196567
  Final line search alpha, max atom move = 0.00023013401 0.0039575147
  Iterations, force evaluations = 13 36

MPI task timing breakdown:
Section |  min time  |  avg time  |  max time  |%varavg| %total
---------------------------------------------------------------
Pair    | 57.754     | 57.754     | 57.754     |   0.0 |100.00
Neigh   | 0          | 0          | 0          |   0.0 |  0.00
Comm    | 0.0018188  | 0.0018188  | 0.0018188  |   0.0 |  0.00
Output  | 4.1499e-05 | 4.1499e-05 | 4.1499e-05 |   0.0 |  0.00
Modify  | 0          | 0          | 0          |   0.0 |  0.00
Other   |            | 0.0008972  |            |       |  0.00

Nlocal:            450 ave         450 max         450 min
Histogram: 1 0 0 0 0 0 0 0 0 0
Nghost:           6300 ave        6300 max        6300 min
Histogram: 1 0 0 0 0 0 0 0 0 0
Neighs:              0 ave           0 max           0 min
Histogram: 1 0 0 0 0 0 0 0 0 0
FullNghs:       301172 ave      301172 max      301172 min
Histogram: 1 0 0 0 0 0 0 0 0 0

Total # of neighbors = 301172
Ave neighs/atom = 669.27111
Neighbor list builds = 0
Dangerous builds = 0
Generated 0 of 6 mixed pair_coeff terms from geometric mixing rule
Setting up Verlet run ...
  Unit style    : metal
  Current step  : 0
  Time step     : 0.0005
Per MPI rank memory allocation (min/avg/max) = 4.556 | 4.556 | 4.556 Mbytes
   Step          Temp          PotEng         KinEng         TotEng         Press          Volume        Density    
         0   300           -211028.24      17.411342     -211010.83      48092.287      4848.2615      0.78893608   
        10   519.19814     -211041.08      30.13312      -211010.95      36379.096      4848.2615      0.78893608   
        20   642.20079     -211048.67      37.271924     -211011.4       29285.349      4848.2615      0.78893608   
        30   681.65101     -211052.26      39.561528     -211012.7       19525.721      4848.2615      0.78893608   
        40   657.84431     -211052.44      38.17984      -211014.26      17257.812      4848.2615      0.78893608   
        50   719.11602     -211057.52      41.735915     -211015.78      13064.683      4848.2615      0.78893608   
        60   684.73483     -211057.11      39.740507     -211017.37      18691.119      4848.2615      0.78893608   
        70   722.97091     -211061.25      41.959645     -211019.29      18116.947      4848.2615      0.78893608   
        80   631.90999     -211057.96      36.674669     -211021.28      17613.862      4848.2615      0.78893608   
        90   638.83234     -211060.24      37.076427     -211023.16      15758.441      4848.2615      0.78893608   
       100   564.76472     -211057.72      32.777705     -211024.95      13220.094      4848.2615      0.78893608   
       110   574.22683     -211059.9       33.326865     -211026.57      15269.262      4848.2615      0.78893608   
       120   558.43019     -211060.61      32.410062     -211028.2       10153.261      4848.2615      0.78893608   
       130   544.72431     -211061.33      31.614603     -211029.72      11993.798      4848.2615      0.78893608   
       140   531.69663     -211062.09      30.858505     -211031.23      15953.42       4848.2615      0.78893608   
       150   532.0225      -211063.59      30.877418     -211032.71      17743.801      4848.2615      0.78893608   
       160   516.87442     -211064.25      29.998257     -211034.25      21816.993      4848.2615      0.78893608   
       170   478.24876     -211063.45      27.756508     -211035.7       14874.68       4848.2615      0.78893608   
       180   481.45025     -211065.01      27.942316     -211037.07      12900.016      4848.2615      0.78893608   
       190   466.96592     -211065.49      27.101677     -211038.39      8798.6005      4848.2615      0.78893608   
       200   447.48903     -211065.61      25.971281     -211039.64      11664.513      4848.2615      0.78893608   
       210   439.95926     -211066.36      25.53427      -211040.82      13844.47       4848.2615      0.78893608   
       220   440.57856     -211067.55      25.570213     -211041.98      11765.007      4848.2615      0.78893608   
       230   410.37447     -211066.9       23.817233     -211043.09      14592.919      4848.2615      0.78893608   
       240   398.95156     -211067.24      23.154273     -211044.09      9965.107       4848.2615      0.78893608   
       250   401.35051     -211068.36      23.293502     -211045.07      11983.39       4848.2615      0.78893608   
       260   376.40438     -211067.82      21.845684     -211045.98      7741.3637      4848.2615      0.78893608   
       270   377.21657     -211068.75      21.892822     -211046.86      7632.4446      4848.2615      0.78893608   
       280   360.7135      -211068.62      20.93502      -211047.68      8126.7595      4848.2615      0.78893608   
       290   362.13363     -211069.51      21.017441     -211048.49      10691.015      4848.2615      0.78893608   
       300   349.47117     -211069.53      20.28254      -211049.25      13439.508      4848.2615      0.78893608   
       310   358.42955     -211070.78      20.802465     -211049.98      9561.1647      4848.2615      0.78893608   
       320   361.1474      -211071.66      20.960203     -211050.7       6117.335       4848.2615      0.78893608   
       330   353.12287     -211071.9       20.494477     -211051.41      2510.5954      4848.2615      0.78893608   
       340   346.11801     -211072.18      20.087929     -211052.1       2214.2228      4848.2615      0.78893608   
       350   327.74464     -211071.75      19.02158      -211052.73      4159.3785      4848.2615      0.78893608   
       360   337.06818     -211072.91      19.562698     -211053.34      6475.8765      4848.2615      0.78893608   
       370   318.77655     -211072.42      18.501091     -211053.92      6697.1643      4848.2615      0.78893608   
       380   328.91057     -211073.56      19.089248     -211054.47      8940.0796      4848.2615      0.78893608   
       390   324.33678     -211073.84      18.823795     -211055.02      3385.6225      4848.2615      0.78893608   
       400   340.75914     -211075.35      19.776912     -211055.57      5447.6666      4848.2615      0.78893608   
       410   330.16708     -211075.26      19.162173     -211056.1       941.52891      4848.2615      0.78893608   
       420   335.73606     -211076.09      19.485384     -211056.61      7343.3284      4848.2615      0.78893608   
       430   336.36681     -211076.66      19.521991     -211057.14      8887.6527      4848.2615      0.78893608   
       440   311.62717     -211075.68      18.086157     -211057.59      9298.5587      4848.2615      0.78893608   
       450   323.9763      -211076.87      18.802873     -211058.07      9090.1149      4848.2615      0.78893608   
       460   299.30129     -211075.93      17.37079      -211058.56      1657.5799      4848.2615      0.78893608   
       470   303.91232     -211076.66      17.638404     -211059.02      6023.0075      4848.2615      0.78893608   
       480   299.09898     -211076.82      17.359048     -211059.46      1910.7665      4848.2615      0.78893608   
       490   298.18575     -211077.17      17.306047     -211059.87      6418.7377      4848.2615      0.78893608   
       500   290.67591     -211077.09      16.870192     -211060.22      4572.7977      4848.2615      0.78893608   
       510   289.0971      -211077.3       16.778561     -211060.53      3056.3619      4848.2615      0.78893608   
       520   286.00431     -211077.44      16.599063     -211060.84      6392.4677      4848.2615      0.78893608   
       530   274.86178     -211077.04      15.952375     -211061.08      3147.5498      4848.2615      0.78893608   
       540   294.89691     -211078.45      17.115169     -211061.33      7030.3386      4848.2615      0.78893608   
       550   291.71882     -211078.54      16.93072      -211061.61      2221.24        4848.2615      0.78893608   
       560   299.7954      -211079.28      17.399467     -211061.88      3976.783       4848.2615      0.78893608   
       570   292.01603     -211079.03      16.94797      -211062.08      3290.2925      4848.2615      0.78893608   
       580   301.09706     -211079.79      17.475012     -211062.32      3413.1799      4848.2615      0.78893608   
       590   291.04964     -211079.4       16.891882     -211062.51      5484.2947      4848.2615      0.78893608   
       600   300.4737      -211080.15      17.438834     -211062.71      2246.0392      4848.2615      0.78893608   
       610   285.7877      -211079.49      16.586491     -211062.9       5052.7284      4848.2615      0.78893608   
       620   275.88529     -211079.05      16.011776     -211063.04      1300.3147      4848.2615      0.78893608   
       630   291.66194     -211080.12      16.927419     -211063.2       615.24517      4848.2615      0.78893608   
       640   254.73332     -211078.06      14.784163     -211063.28      465.91719      4848.2615      0.78893608   
       650   258.86577     -211078.35      15.024001     -211063.33      636.42053      4848.2615      0.78893608   
       660   261.55208     -211078.55      15.179909     -211063.37      5540.9524      4848.2615      0.78893608   
       670   267.88995     -211078.92      15.547745     -211063.37      4481.5881      4848.2615      0.78893608   
       680   272.14076     -211079.12      15.794453     -211063.32      6597.9796      4848.2615      0.78893608   
       690   283.09227     -211079.69      16.430054     -211063.26      1127.3854      4848.2615      0.78893608   
       700   288.69068     -211079.92      16.754974     -211063.17      2095.65        4848.2615      0.78893608   
       710   276.86774     -211079.12      16.068796     -211063.05      1986.1616      4848.2615      0.78893608   
       720   288.49913     -211079.66      16.743856     -211062.92      4250.4057      4848.2615      0.78893608   
       730   280.93134     -211079.05      16.304639     -211062.74      5857.0822      4848.2615      0.78893608   
       740   274.48213     -211078.48      15.93034      -211062.55      5351.3976      4848.2615      0.78893608   
       750   298.42435     -211079.7       17.319894     -211062.38      4257.5221      4848.2615      0.78893608   
       760   311.44312     -211080.27      18.075475     -211062.2       1319.0169      4848.2615      0.78893608   
       770   303.5395      -211079.62      17.616767     -211062         994.65665      4848.2615      0.78893608   
       780   324.44367     -211080.68      18.829999     -211061.85     -888.24303      4848.2615      0.78893608   
       790   313.54306     -211079.87      18.197351     -211061.67      1309.2031      4848.2615      0.78893608   
       800   305.11159     -211079.22      17.708007     -211061.51      1384.1036      4848.2615      0.78893608   
       810   305.04998     -211079.09      17.704431     -211061.39      4939.1544      4848.2615      0.78893608   
       820   290.0877      -211078.06      16.836054     -211061.23      2494.3569      4848.2615      0.78893608   
       830   307.11186     -211078.9       17.824098     -211061.08      4239.2076      4848.2615      0.78893608   
       840   298.20841     -211078.27      17.307361     -211060.96      535.56919      4848.2615      0.78893608   
       850   318.88782     -211079.37      18.507549     -211060.86      3554.2039      4848.2615      0.78893608   
       860   325.34192     -211079.61      18.882131     -211060.73      2196.4375      4848.2615      0.78893608   
       870   335.57649     -211080.13      19.476123     -211060.66      5025.2261      4848.2615      0.78893608   
       880   334.15225     -211080         19.393463     -211060.6       6164.7099      4848.2615      0.78893608   
       890   308.68207     -211078.5       17.91523      -211060.58      5454.6455      4848.2615      0.78893608   
       900   321.5694      -211079.26      18.663182     -211060.6       5974.8509      4848.2615      0.78893608   
       910   311.61566     -211078.7       18.085489     -211060.61      1151.6458      4848.2615      0.78893608   
       920   314.00645     -211078.88      18.224245     -211060.65      5075.0373      4848.2615      0.78893608   
       930   295.2486      -211077.86      17.135581     -211060.73      842.68726      4848.2615      0.78893608   
       940   311.63587     -211078.9       18.086662     -211060.81      4597.6031      4848.2615      0.78893608   
       950   309.57366     -211078.84      17.966976     -211060.88      2097.5966      4848.2615      0.78893608   
       960   305.07838     -211078.67      17.70608      -211060.96      3805.2376      4848.2615      0.78893608   
       970   319.77154     -211079.63      18.558839     -211061.07      2619.9634      4848.2615      0.78893608   
       980   307.71545     -211079.01      17.859129     -211061.16      926.90588      4848.2615      0.78893608   
       990   318.23581     -211079.73      18.469708     -211061.26      2991.6855      4848.2615      0.78893608   
      1000   310.83867     -211079.45      18.040394     -211061.41      1941.2321      4848.2615      0.78893608   
      1010   317.02979     -211080         18.399713     -211061.6       5562.6255      4848.2615      0.78893608   
      1020   309.62204     -211079.74      17.969783     -211061.77      3971.5782      4848.2615      0.78893608   
      1030   313.30608     -211080.15      18.183597     -211061.97      5281.5938      4848.2615      0.78893608   
      1040   315.96231     -211080.52      18.337759     -211062.18      4648.2362      4848.2615      0.78893608   
      1050   298.14945     -211079.69      17.30394      -211062.38      4265.7006      4848.2615      0.78893608   
      1060   304.4686      -211080.27      17.670689     -211062.6       3892.6374      4848.2615      0.78893608   
      1070   300.88175     -211080.25      17.462516     -211062.79      1504.3226      4848.2615      0.78893608   
      1080   288.59682     -211079.73      16.749526     -211062.98      1862.5132      4848.2615      0.78893608   
      1090   291.15618     -211080.08      16.898066     -211063.18      1471.6051      4848.2615      0.78893608   
      1100   302.79252     -211080.95      17.573413     -211063.38      1089.5065      4848.2615      0.78893608   
      1110   281.52393     -211079.89      16.339031     -211063.55      2623.1413      4848.2615      0.78893608   
      1120   286.11229     -211080.32      16.605329     -211063.71     -84.288757      4848.2615      0.78893608   
      1130   296.79153     -211081.07      17.225129     -211063.84      2162.7838      4848.2615      0.78893608   
      1140   287.54295     -211080.65      16.688362     -211063.96     -1199.3683      4848.2615      0.78893608   
      1150   282.0747      -211080.45      16.370997     -211064.08      2129.5457      4848.2615      0.78893608   
      1160   280.35945     -211080.41      16.271447     -211064.14      870.07553      4848.2615      0.78893608   
      1170   278.14809     -211080.34      16.143105     -211064.19      4490.9962      4848.2615      0.78893608   
      1180   267.29259     -211079.77      15.513075     -211064.25      5847.8714      4848.2615      0.78893608   
      1190   285.64591     -211080.88      16.578262     -211064.3       4411.3854      4848.2615      0.78893608   
      1200   269.35017     -211079.93      15.632493     -211064.29      4035.3609      4848.2615      0.78893608   
      1210   273.08051     -211080.13      15.848994     -211064.28     -170.72531      4848.2615      0.78893608   
      1220   287.62823     -211080.92      16.693311     -211064.22      1987.9421      4848.2615      0.78893608   
      1230   272.32419     -211079.93      15.805098     -211064.13     -102.91797      4848.2615      0.78893608   
      1240   277.91981     -211080.16      16.129856     -211064.03      5651.7397      4848.2615      0.78893608   
      1250   277.25157     -211079.97      16.091073     -211063.88      2326.2131      4848.2615      0.78893608   
      1260   287.77435     -211080.43      16.701792     -211063.73      4718.1082      4848.2615      0.78893608   
      1270   279.10193     -211079.76      16.198464     -211063.56      2120.6019      4848.2615      0.78893608   
      1280   296.77023     -211080.61      17.223892     -211063.39     -907.65137      4848.2615      0.78893608   
      1290   303.57406     -211080.81      17.618772     -211063.19      1957.2212      4848.2615      0.78893608   
      1300   290.45702     -211079.83      16.857488     -211062.98      876.06282      4848.2615      0.78893608   
      1310   308.0545      -211080.65      17.878807     -211062.78      7903.7246      4848.2615      0.78893608   
      1320   299.95106     -211079.97      17.408501     -211062.56      4013.7533      4848.2615      0.78893608   
      1330   301.46494     -211079.86      17.496363     -211062.37      7888.0255      4848.2615      0.78893608   
      1340   306.20686     -211079.96      17.771574     -211062.19      1519.1805      4848.2615      0.78893608   
      1350   317.5325      -211080.48      18.428889     -211062.05      4114.2886      4848.2615      0.78893608   
      1360   308.21598     -211079.78      17.888179     -211061.89      1143.3855      4848.2615      0.78893608   
      1370   323.10742     -211080.5       18.752445     -211061.75      2590.9137      4848.2615      0.78893608   
      1380   338.24949     -211081.29      19.631258     -211061.65      3787.42        4848.2615      0.78893608   
      1390   306.79817     -211079.37      17.805892     -211061.56      3036.0503      4848.2615      0.78893608   
      1400   323.14396     -211080.28      18.754566     -211061.52      4858.9173      4848.2615      0.78893608   
      1410   324.16937     -211080.31      18.814079     -211061.5      -456.39877      4848.2615      0.78893608   
      1420   332.16619     -211080.81      19.278196     -211061.53      3754.1129      4848.2615      0.78893608   
      1430   334.0529      -211080.95      19.387697     -211061.57     -376.6729       4848.2615      0.78893608   
      1440   325.97118     -211080.56      18.918652     -211061.64      4089.7202      4848.2615      0.78893608   
      1450   327.15207     -211080.74      18.987188     -211061.75      1125.0613      4848.2615      0.78893608   
      1460   320.22907     -211080.46      18.585392     -211061.87      3150.6882      4848.2615      0.78893608   
      1470   320.40855     -211080.61      18.595809     -211062.02      4131.4347      4848.2615      0.78893608   
      1480   308.29149     -211080.09      17.892561     -211062.2       5358.5377      4848.2615      0.78893608   
      1490   320.94847     -211081.02      18.627145     -211062.39      6243.2808      4848.2615      0.78893608   
      1500   314.11786     -211080.84      18.230711     -211062.61      3443.9064      4848.2615      0.78893608   
      1510   291.71755     -211079.74      16.930646     -211062.81      2427.9806      4848.2615      0.78893608   
      1520   314.57607     -211081.27      18.257305     -211063.01      2163.264       4848.2615      0.78893608   
      1530   299.23067     -211080.57      17.366691     -211063.2       2306.8192      4848.2615      0.78893608   
      1540   304.51722     -211081.09      17.673511     -211063.42      7038.8104      4848.2615      0.78893608   
      1550   299.75168     -211080.99      17.39693      -211063.59      4274.1152      4848.2615      0.78893608   
      1560   297.61166     -211081.06      17.272728     -211063.79      6350.0325      4848.2615      0.78893608   
      1570   298.59985     -211081.32      17.33008      -211063.99     -737.19277      4848.2615      0.78893608   
      1580   312.05873     -211082.3       18.111204     -211064.19     -725.90684      4848.2615      0.78893608   
      1590   297.84725     -211081.65      17.2864       -211064.36     -1196.406       4848.2615      0.78893608   
      1600   298.96071     -211081.89      17.351024     -211064.54      1121.0583      4848.2615      0.78893608   
      1610   304.14696     -211082.37      17.652022     -211064.72      5828.784       4848.2615      0.78893608   
      1620   285.81818     -211081.46      16.58826      -211064.87      5486.4442      4848.2615      0.78893608   
      1630   291.05242     -211081.92      16.892043     -211065.03      5949.8475      4848.2615      0.78893608   
      1640   279.42606     -211081.39      16.217275     -211065.17     -624.42533      4848.2615      0.78893608   
      1650   297.11774     -211082.55      17.244061     -211065.31     -1120.8145      4848.2615      0.78893608   
      1660   279.86898     -211081.66      16.242981     -211065.42     -466.13771      4848.2615      0.78893608   
      1670   294.10747     -211082.59      17.069352     -211065.52      3161.8766      4848.2615      0.78893608   
      1680   288.62983     -211082.35      16.751442     -211065.6       5095.9515      4848.2615      0.78893608   
      1690   263.11792     -211080.92      15.270787     -211065.65      3497.9263      4848.2615      0.78893608   
      1700   286.65289     -211082.33      16.636705     -211065.69      2401.7935      4848.2615      0.78893608   
      1710   264.21748     -211081.02      15.334603     -211065.69     -864.99611      4848.2615      0.78893608   
      1720   268.45778     -211081.23      15.5807       -211065.65      135.50137      4848.2615      0.78893608   
      1730   265.34162     -211080.99      15.399845     -211065.59      2334.8374      4848.2615      0.78893608   
      1740   274.24017     -211081.42      15.916298     -211065.5       4582.9641      4848.2615      0.78893608   
      1750   280.65202     -211081.65      16.288427     -211065.37      4950.7979      4848.2615      0.78893608   
      1760   275.45982     -211081.21      15.987083     -211065.22      3661.8458      4848.2615      0.78893608   
      1770   285.5283      -211081.63      16.571436     -211065.05      2647.4691      4848.2615      0.78893608   
      1780   284.39721     -211081.35      16.50579      -211064.84      2458.4791      4848.2615      0.78893608   
      1790   289.68218     -211081.45      16.812518     -211064.63      1153.251       4848.2615      0.78893608   
      1800   287.9168      -211081.11      16.710059     -211064.4       3532.8017      4848.2615      0.78893608   
      1810   284.48671     -211080.67      16.510984     -211064.16      1775.1867      4848.2615      0.78893608   
      1820   295.1512      -211081.06      17.129928     -211063.93      3655.0138      4848.2615      0.78893608   
      1830   295.90057     -211080.88      17.17342      -211063.7       850.71673      4848.2615      0.78893608   
      1840   299.81939     -211080.87      17.400859     -211063.47      3686.4536      4848.2615      0.78893608   
      1850   307.744       -211081.09      17.860786     -211063.23      2182.9755      4848.2615      0.78893608   
      1860   304.38665     -211080.67      17.665933     -211063         1304.1269      4848.2615      0.78893608   
      1870   303.92681     -211080.39      17.639245     -211062.75      1379.3816      4848.2615      0.78893608   
      1880   297.94605     -211079.81      17.292135     -211062.52      761.00266      4848.2615      0.78893608   
      1890   314.13928     -211080.55      18.231955     -211062.31      3635.5912      4848.2615      0.78893608   
      1900   315.85607     -211080.47      18.331593     -211062.14      2892.5064      4848.2615      0.78893608   
      1910   311.88912     -211080.08      18.10136      -211061.98      6937.9193      4848.2615      0.78893608   
      1920   325.85948     -211080.76      18.912169     -211061.85      3018.8534      4848.2615      0.78893608   
      1930   318.33944     -211080.2       18.475723     -211061.73      2326.5163      4848.2615      0.78893608   
      1940   318.86291     -211080.13      18.506103     -211061.62     -1428.7027      4848.2615      0.78893608   
      1950   318.57259     -211080.03      18.489254     -211061.54      565.7562       4848.2615      0.78893608   
      1960   304.99632     -211079.17      17.701317     -211061.47      2955.4187      4848.2615      0.78893608   
      1970   321.84525     -211080.1       18.679192     -211061.42      6283.8887      4848.2615      0.78893608   
      1980   322.199       -211080.11      18.699723     -211061.41      5382.6464      4848.2615      0.78893608   
      1990   319.85816     -211079.98      18.563866     -211061.41      3421.5662      4848.2615      0.78893608   
      2000   313.01687     -211079.6       18.166812     -211061.43     -908.71714      4848.2615      0.78893608   
Loop time of 2320.56 on 1 procs for 2000 steps with 450 atoms

Performance: 0.037 ns/day, 644.601 hours/ns, 0.862 timesteps/s, 387.837 atom-step/s
99.6% CPU use with 1 MPI tasks x 1 OpenMP threads

MPI task timing breakdown:
Section |  min time  |  avg time  |  max time  |%varavg| %total
---------------------------------------------------------------
Pair    | 2319.8     | 2319.8     | 2319.8     |   0.0 | 99.97
Neigh   | 0.61786    | 0.61786    | 0.61786    |   0.0 |  0.03
Comm    | 0.079293   | 0.079293   | 0.079293   |   0.0 |  0.00
Output  | 0.0075777  | 0.0075777  | 0.0075777  |   0.0 |  0.00
Modify  | 0.028646   | 0.028646   | 0.028646   |   0.0 |  0.00
Other   |            | 0.01454    |            |       |  0.00

Nlocal:            450 ave         450 max         450 min
Histogram: 1 0 0 0 0 0 0 0 0 0
Nghost:           5915 ave        5915 max        5915 min
Histogram: 1 0 0 0 0 0 0 0 0 0
Neighs:              0 ave           0 max           0 min
Histogram: 1 0 0 0 0 0 0 0 0 0
FullNghs:       301388 ave      301388 max      301388 min
Histogram: 1 0 0 0 0 0 0 0 0 0

Total # of neighbors = 301388
Ave neighs/atom = 669.75111
Neighbor list builds = 58
Dangerous builds = 0
Generated 0 of 6 mixed pair_coeff terms from geometric mixing rule
Setting up Verlet run ...
  Unit style    : metal
  Current step  : 2000
  Time step     : 0.0005
Per MPI rank memory allocation (min/avg/max) = 4.556 | 4.556 | 4.556 Mbytes
   Step          Temp          PotEng         KinEng         TotEng         Press          Volume        Density    
      2000   313.01687     -211079.6       18.166812     -211061.43     -908.71714      4848.2615      0.78893608   
      2010   306.31606     -211079.21      17.777912     -211061.43     -1286.0445      4847.7518      0.78901902   
      2020   322.91845     -211080.19      18.741478     -211061.45      732.88115      4846.8189      0.78917089   
      2030   300.93103     -211078.92      17.465376     -211061.45      3536.416       4846.2963      0.78925598   
      2040   319.76243     -211080.04      18.55831      -211061.49      6289.9931      4847.0643      0.78913094   
      2050   306.9269      -211079.36      17.813363     -211061.55      3048.3051      4849.9477      0.78866178   
      2060   308.72474     -211079.55      17.917706     -211061.63      5669.7165      4854.2505      0.78796271   
      2070   300.48975     -211079.16      17.439766     -211061.72      881.17412      4860.3168      0.78697924   
      2080   303.5962      -211079.44      17.620057     -211061.82      3558.0926      4867.1522      0.785874     
      2090   312.98952     -211080.09      18.165225     -211061.92      465.19158      4875.0312      0.78460387   
      2100   318.02596     -211080.5       18.457529     -211062.04      3417.2827      4883.4565      0.78325023   
      2110   308.11221     -211080.11      17.882157     -211062.23      3996.6777      4893.0011      0.78172235   
      2120   304.92891     -211080.12      17.697404     -211062.42      4129.89        4904.1136      0.77995101   
      2130   302.02754     -211080.17      17.529015     -211062.65      3367.2261      4916.7545      0.77794578   
      2140   294.94653     -211079.99      17.118049     -211062.87      287.41834      4930.5483      0.77576938   
      2150   298.34721     -211080.4       17.315417     -211063.08      481.83376      4944.5883      0.7735666    
      2160   289.23767     -211080.03      16.78672      -211063.25     -493.25783      4958.7406      0.77135883   
      2170   300.70278     -211080.84      17.45213      -211063.39     -869.74142      4972.7691      0.76918278   
      2180   291.583       -211080.44      16.922837     -211063.52      562.20181      4986.5057      0.76706388   
      2190   288.01342     -211080.34      16.715667     -211063.62      2084.5636      5000.4615      0.76492307   
      2200   285.81527     -211080.3       16.588091     -211063.72      4242.1336      5015.2001      0.76267512   
      2210   275.43817     -211079.79      15.985827     -211063.8       4009.6356      5031.4482      0.76021222   
      2220   294.25456     -211080.92      17.077889     -211063.84      113.19554      5048.9519      0.75757671   
      2230   279.70407     -211080.09      16.23341      -211063.86     -679.35742      5066.4328      0.75496282   
      2240   304.12637     -211081.49      17.650827     -211063.84     -2587.9176      5083.2576      0.752464     
      2250   292.11501     -211080.79      16.953714     -211063.83      1204.4731      5099.0742      0.75012997   
      2260   314.22087     -211082.08      18.236689     -211063.85      1554.4008      5114.9757      0.74779796   
      2270   305.58531     -211081.61      17.735501     -211063.87      3111.5539      5131.4266      0.74540058   
      2280   291.99004     -211080.84      16.946461     -211063.89      874.98025      5148.78        0.74288829   
      2290   294.80924     -211081         17.110081     -211063.89     -985.98107      5166.212       0.74038162   
      2300   270.79586     -211079.56      15.716398     -211063.85     -1871.6215      5182.915       0.73799559   
      2310   302.61189     -211081.36      17.56293      -211063.8      -1327.8361      5198.4082      0.73579608   
      2320   285.81029     -211080.34      16.587802     -211063.76     -1245.8472      5212.8971      0.73375098   
      2330   298.34464     -211081.04      17.315268     -211063.73      534.80002      5226.5243      0.73183786   
      2340   302.70083     -211081.26      17.568092     -211063.69      295.59965      5239.9312      0.72996538   
      2350   306.38594     -211081.44      17.781967     -211063.66      1483.838       5253.246       0.72811522   
      2360   297.57297     -211080.92      17.270482     -211063.64     -344.91079      5266.7377      0.72625003   
      2370   295.51864     -211080.74      17.151253     -211063.58     -2367.0346      5279.7142      0.72446504   
      2380   305.4979      -211081.28      17.730427     -211063.55     -1095.8585      5291.4149      0.72286306   
      2390   304.84319     -211081.19      17.692429     -211063.5      -2548.7445      5302.0696      0.72141045   
      2400   302.7708      -211081.06      17.572153     -211063.48      1431.0174      5311.5817      0.72011853   
      2410   297.99633     -211080.77      17.295053     -211063.47     -1158.7068      5321.0598      0.71883582   
      2420   309.80269     -211081.44      17.980268     -211063.46      1992.8936      5330.1554      0.71760916   
      2430   291.56575     -211080.36      16.921836     -211063.43     -1742.3724      5339.5255      0.71634987   
      2440   291.77519     -211080.33      16.933992     -211063.39     -595.52937      5348.1651      0.71519265   
      2450   282.72606     -211079.75      16.4088       -211063.34     -2057.4376      5356.1145      0.71413119   
      2460   295.04548     -211080.4       17.123792     -211063.28     -1055.3039      5362.9564      0.71322011   
      2470   309.20888     -211081.17      17.945805     -211063.22      37.375117      5369.102       0.71240375   
      2480   293.36293     -211080.18      17.02614      -211063.16      1273.4756      5374.9806      0.7116246    
      2490   315.72148     -211081.45      18.323781     -211063.13      3464.5479      5381.3404      0.71078357   
      2500   311.68168     -211081.17      18.08932      -211063.08      1899.2098      5388.8946      0.70978719   
      2510   301.80039     -211080.57      17.515832     -211063.05      2273.6621      5397.311       0.70868037   
      2520   296.05994     -211080.18      17.182669     -211063        -654.75223      5406.4262      0.70748554   
      2530   298.73817     -211080.26      17.338108     -211062.92      464.23797      5415.2192      0.70633676   
      2540   312.47242     -211080.96      18.135214     -211062.82     -1034.612       5423.8924      0.70520728   
      2550   299.65723     -211080.11      17.391448     -211062.72      2089.0842      5432.0267      0.70415125   
      2560   302.2501      -211080.17      17.541932     -211062.62      1729.4997      5440.7415      0.70302336   
      2570   304.63311     -211080.17      17.680237     -211062.49      3674.4954      5450.182       0.70180563   
      2580   296.21145     -211079.54      17.191462     -211062.35     -1206.6973      5460.7121      0.70045231   
      2590   299.3365      -211079.52      17.372833     -211062.15      528.52135      5470.8604      0.69915299   
      2600   301.15944     -211079.4       17.478633     -211061.92     -2161.586       5480.5729      0.69791397   
      2610   308.21867     -211079.58      17.888335     -211061.69      2004.4508      5489.4955      0.69677958   
      2620   314.94905     -211079.75      18.278951     -211061.47      516.86626      5498.6716      0.69561681   
      2630   329.80546     -211080.42      19.141185     -211061.28      2887.7397      5508.1617      0.69441831   
      2640   318.86678     -211079.64      18.506328     -211061.13      3386.6068      5518.7002      0.69309226   
      2650   324.88825     -211079.88      18.855801     -211061.03      2171.8551      5530.6096      0.69159978   
      2660   325.81943     -211079.85      18.909845     -211060.94      1217.5281      5543.4205      0.69000148   
      2670   326.69231     -211079.83      18.960505     -211060.86     -884.63847      5556.4208      0.68838709   
      2680   330.52623     -211080.02      19.183017     -211060.84      1444.578       5568.9956      0.68683272   
      2690   345.06381     -211080.89      20.026746     -211060.86      166.29802      5581.7405      0.68526446   
      2700   324.14755     -211079.73      18.812813     -211060.91      1681.4223      5594.4945      0.68370223   
      2710   338.66382     -211080.68      19.655305     -211061.03      1840.9759      5607.7355      0.68208787   
      2720   325.95435     -211080.09      18.917675     -211061.17      1868.651       5621.5396      0.68041296   
      2730   310.55824     -211079.37      18.024119     -211061.34      1638.202       5636.0365      0.67866281   
      2740   320.41167     -211080.11      18.59599      -211061.51     -2151.4316      5650.6863      0.67690334   
      2750   309.51963     -211079.64      17.96384      -211061.68     -310.04426      5664.2533      0.67528201   
      2760   325.33533     -211080.74      18.881748     -211061.86     -1373.0544      5677.0738      0.67375703   
      2770   306.2707      -211079.82      17.775279     -211062.04      1718.9795      5689.1146      0.67233104   
      2780   316.73323     -211080.6       18.382502     -211062.22      2395.6524      5701.6331      0.67085488   
      2790   319.8784      -211080.97      18.56504      -211062.41      3283.0007      5715.0791      0.66927654   
      2800   302.65094     -211080.15      17.565196     -211062.59      1702.9543      5729.8467      0.66755161   
      2810   299.77731     -211080.11      17.398417     -211062.71     -795.16771      5745.0805      0.66578151   
      2820   292.46583     -211079.77      16.974075     -211062.8      -1763.1351      5759.6278      0.66409992   
      2830   311.56389     -211080.95      18.082484     -211062.87      1066.0229      5773.2109      0.66253744   
      2840   294.33298     -211080.03      17.08244      -211062.95      1918.0123      5786.9044      0.66096969   
      2850   294.13932     -211080.09      17.071201     -211063.02      4287.3247      5801.6167      0.65929354   
      2860   297.55898     -211080.35      17.26967      -211063.08      1567.464       5817.9318      0.65744469   
      2870   282.05132     -211079.5       16.369639     -211063.13      2052.1943      5835.0582      0.65551503   
      2880   286.90923     -211079.79      16.651582     -211063.13     -2324.0565      5852.4818      0.65356348   
      2890   275.15618     -211079.07      15.969461     -211063.1      -2288.3806      5868.4675      0.65178318   
      2900   274.15254     -211078.98      15.911212     -211063.06     -1270.2334      5882.7972      0.65019552   
      2910   297.17237     -211080.27      17.247232     -211063.02      320.63382      5895.9829      0.64874143   
      2920   294.45686     -211080.07      17.08963      -211062.98      2431.2874      5909.142       0.64729674   
      2930   292.84585     -211079.94      16.996131     -211062.94     -582.94232      5922.9209      0.6457909    
      2940   305.46272     -211080.62      17.728386     -211062.89      431.85152      5936.4296      0.64432135   
      2950   298.61974     -211080.14      17.331234     -211062.81     -2804.3682      5949.5092      0.64290486   
      2960   297.64997     -211080.02      17.274951     -211062.75      341.58448      5961.1975      0.6416443    
      2970   301.07688     -211080.15      17.473841     -211062.68     -1630.7496      5972.4445      0.64043599   
      2980   300.41429     -211080.04      17.435386     -211062.61      1440.8165      5982.9268      0.63931392   
      2990   305.89901     -211080.28      17.753707     -211062.53     -719.20659      5993.6831      0.6381666    
      3000   299.22237     -211079.81      17.36621      -211062.45      771.45279      6004.0705      0.63706253   
      3010   302.99537     -211079.96      17.585186     -211062.37      105.65842      6014.5732      0.63595009   
      3020   304.201       -211079.93      17.655158     -211062.28     -846.88841      6024.921       0.63485785   
      3030   297.11876     -211079.44      17.244121     -211062.2      -575.12844      6034.6345      0.63383597   
      3040   297.74348     -211079.37      17.280378     -211062.09     -3315.9782      6043.5841      0.63289735   
      3050   306.82049     -211079.79      17.807188     -211061.99     -1186.4714      6050.6708      0.63215608   
      3060   305.08592     -211079.61      17.706517     -211061.9      -2441.3101      6056.5924      0.63153802   
      3070   311.8952      -211079.93      18.101713     -211061.83      442.00346      6061.2422      0.63105354   
      3080   318.14251     -211080.23      18.464293     -211061.76     -819.39738      6065.7542      0.63058414   
      3090   308.83169     -211079.63      17.923913     -211061.71      948.46423      6070.0098      0.63014204   
      3100   302.91136     -211079.25      17.58031      -211061.67     -166.18559      6074.5641      0.62966961   
      3110   305.47415     -211079.34      17.729049     -211061.61     -2701.539       6078.9043      0.62922003   
      3120   297.23104     -211078.8       17.250637     -211061.55     -2192.244       6081.7245      0.62892826   
      3130   306.91907     -211079.31      17.812909     -211061.5      -2580.8753      6083.0658      0.62878958   
      3140   305.2707      -211079.17      17.717241     -211061.46      2066.4724      6083.1591      0.62877993   
      3150   298.6049      -211078.74      17.330373     -211061.41      2045.1597      6084.1174      0.62868089   
      3160   309.72261     -211079.33      17.97562      -211061.36      2520.8844      6086.4398      0.62844102   
      3170   290.26359     -211078.15      16.846262     -211061.3      -1636.6187      6089.8739      0.62808663   
      3180   305.28379     -211078.94      17.718001     -211061.22     -3214.3396      6092.5616      0.62780955   
      3190   295.7719      -211078.29      17.165952     -211061.13     -3842.0566      6093.2771      0.62773583   
      3200   304.5955      -211078.69      17.678054     -211061.01     -261.59934      6091.9829      0.62786919   
      3210   319.02031     -211079.4       18.515239     -211060.88      2335.6643      6090.5244      0.62801955   
      3220   294.05403     -211077.82      17.06625      -211060.75      3350.062       6090.335       0.62803907   
      3230   321.32783     -211079.27      18.649162     -211060.62      932.77926      6091.9867      0.6278688    
      3240   301.19595     -211077.95      17.480752     -211060.47     -1430.0198      6094.1081      0.62765023   
      3250   313.11228     -211078.5       18.17235      -211060.33     -719.14687      6095.6158      0.62749499   
      3260   316.89356     -211078.57      18.391807     -211060.18     -1184.1745      6096.5467      0.62739917   
      3270   316.18045     -211078.4       18.35042      -211060.05      1596.1448      6097.0051      0.62735201   
      3280   335.19124     -211079.38      19.453764     -211059.93      1483.1461      6098.3134      0.62721742   
      3290   323.52781     -211078.6       18.776844     -211059.82      2009.5766      6100.5803      0.62698435   
      3300   327.75209     -211078.79      19.022012     -211059.76     -223.50382      6103.9209      0.62664121   
      3310   304.27748     -211077.37      17.659597     -211059.71      600.91686      6107.3159      0.62629286   
      3320   319.13957     -211078.19      18.52216      -211059.67     -793.7592       6110.8943      0.62592612   
      3330   313.36102     -211077.83      18.186786     -211059.64      975.84375      6114.2307      0.62558457   
      3340   302.48711     -211077.2       17.555688     -211059.64     -1092.0421      6117.7477      0.62522493   
      3350   321.98186     -211078.33      18.68712      -211059.64      1362.3235      6120.9947      0.62489327   
      3360   312.01919     -211077.77      18.108909     -211059.66     -926.92904      6124.5526      0.62453025   
      3370   307.81672     -211077.58      17.865007     -211059.72      1265.8779      6127.8856      0.62419057   
      3380   306.23881     -211077.57      17.773429     -211059.79      119.27116      6131.5277      0.6238198    
      3390   320.96901     -211078.53      18.628337     -211059.9       1561.959       6135.3317      0.62343302   
      3400   318.02293     -211078.51      18.457353     -211060.05      2468.8516      6140.024       0.62295658   
      3410   312.061       -211078.33      18.111336     -211060.22     -2035.7143      6145.727       0.62237851   
      3420   325.0653      -211079.29      18.866077     -211060.42      1584.3792      6150.9203      0.62185302   
      3430   306.06825     -211078.4       17.763529     -211060.64     -2724.0086      6156.2618      0.62131347   
      3440   305.55173     -211078.62      17.733552     -211060.88      4574.5217      6160.9405      0.62084164   
      3450   308.33919     -211079.02      17.89533      -211061.12     -1389.1083      6167.2091      0.62021059   
      3460   300.32703     -211078.78      17.430321     -211061.35      2165.5565      6173.3603      0.6195926    
      3470   299.30002     -211078.91      17.370716     -211061.54     -1934.9146      6180.1144      0.61891546   
      3480   303.15042     -211079.3       17.594185     -211061.7      -1423.902       6185.9771      0.6183289    
      3490   281.12526     -211078.13      16.315893     -211061.81     -102.23087      6191.0182      0.61782541   
      3500   303.4674      -211079.52      17.612582     -211061.9      -1574.1484      6195.6735      0.6173612    
      3510   301.52716     -211079.48      17.499975     -211061.98      2813.4095      6199.9188      0.61693847   
      3520   288.52425     -211078.78      16.745314     -211062.03     -2184.138       6205.078       0.61642551   
      3530   295.28624     -211079.22      17.137765     -211062.08      2073.5866      6209.6903      0.61596766   
      3540   293.68071     -211079.15      17.044584     -211062.1      -1640.156       6214.8744      0.61545385   
      3550   295.41459     -211079.27      17.145215     -211062.12      2728.0289      6219.6898      0.61497735   
      3560   280.58134     -211078.41      16.284325     -211062.13     -70.869973      6225.6244      0.61439112   
      3570   302.73743     -211079.69      17.570216     -211062.12      1566.4495      6231.8275      0.61377957   
      3580   289.9037      -211078.93      16.825374     -211062.1       809.1994       6238.7907      0.61309451   
      3590   295.30708     -211079.23      17.138974     -211062.09      780.84401      6246.2312      0.61236421   
      3600   292.4768      -211079.04      16.974712     -211062.07     -144.31761      6254.0706      0.61159661   
      3610   296.36578     -211079.22      17.20042      -211062.02      334.78264      6261.8823      0.61083364   
      3620   297.41508     -211079.24      17.261319     -211061.98      848.23345      6269.8464      0.61005775   
      3630   294.86176     -211079.03      17.11313      -211061.92     -871.33673      6278.1497      0.60925091   
      3640   297.78883     -211079.15      17.28301      -211061.86     -512.29336      6285.8755      0.60850209   
      3650   293.85991     -211078.85      17.054984     -211061.8      -1556.9048      6293.033       0.60781      
      3660   314.75808     -211080.01      18.267868     -211061.75      1347.2616      6299.3506      0.60720043   
      3670   299.48388     -211079.09      17.381387     -211061.71     -912.61642      6305.9892      0.6065612    
      3680   314.12582     -211079.92      18.231173     -211061.69      2146.2048      6312.4269      0.6059426    
      3690   310.86153     -211079.71      18.041721     -211061.66     -815.03553      6319.6689      0.60524823   
      3700   314.03065     -211079.88      18.22565      -211061.66      1071.162       6326.8242      0.60456372   
      3710   311.78417     -211079.75      18.095269     -211061.65     -1467.7211      6334.2125      0.60385855   
      3720   306.84574     -211079.46      17.808653     -211061.65      1091.2002      6341.0806      0.6032045    
      3730   305.33845     -211079.4       17.721173     -211061.68      1612.26        6348.3503      0.60251375   
      3740   294.56083     -211078.81      17.095664     -211061.72      1370.0279      6356.5525      0.6017363    
      3750   304.83802     -211079.45      17.69213      -211061.76      1421.9548      6365.6446      0.60087683   
      3760   303.40612     -211079.39      17.609025     -211061.78     -1920.7262      6375.2778      0.59996889   
      3770   304.45312     -211079.48      17.669791     -211061.81      188.64602      6384.1215      0.59913778   
      3780   287.55186     -211078.53      16.688879     -211061.84     -1808.9483      6392.5866      0.5983444    
      3790   297.40325     -211079.14      17.260632     -211061.88      884.38258      6400.201       0.59763254   
      3800   300.55685     -211079.36      17.44366      -211061.92      187.2554       6407.9311      0.59691159   
      3810   294.89469     -211079.1       17.115041     -211061.99      682.83139      6415.7472      0.5961844    
      3820   297.60721     -211079.31      17.272469     -211062.04     -507.11017      6423.8207      0.59543511   
      3830   297.23226     -211079.36      17.250708     -211062.11     -725.19315      6431.3696      0.59473621   
      3840   284.72969     -211078.72      16.525086     -211062.19      1797.6256      6438.6649      0.59406234   
      3850   277.46115     -211078.36      16.103236     -211062.26      300.56136      6446.6006      0.59333106   
      3860   286.16716     -211078.94      16.608514     -211062.33      1266.6197      6454.8967      0.59256848   
      3870   282.32475     -211078.76      16.385509     -211062.38      733.31696      6463.7227      0.59175935   
      3880   288.32434     -211079.17      16.733712     -211062.44      1435.9347      6473.0762      0.59090427   
      3890   295.93975     -211079.64      17.175693     -211062.46     -77.569158      6483.2547      0.58997657   
      3900   288.10247     -211079.2       16.720835     -211062.48     -787.0822       6493.3015      0.58906373   
      3910   290.18874     -211079.31      16.841918     -211062.47     -9.0684416      6502.9975      0.58818543   
      3920   294.82128     -211079.55      17.11078      -211062.44     -927.51896      6512.3853      0.58733755   
      3930   284.28306     -211078.9       16.499165     -211062.41     -697.81606      6521.233       0.58654067   
      3940   293.07374     -211079.35      17.009356     -211062.34     -487.13339      6529.4571      0.5858019    
      3950   297.38908     -211079.54      17.25981      -211062.28      158.85152      6537.2415      0.58510434   
      3960   289.33188     -211079         16.792187     -211062.2       1833.0869      6545.2276      0.58439043   
      3970   287.12355     -211078.77      16.66402      -211062.11     -1156.8289      6553.8512      0.58362149   
      3980   294.98521     -211079.12      17.120294     -211062         143.91403      6562.0936      0.58288842   
      3990   290.09812     -211078.7       16.836658     -211061.86     -2242.0662      6569.7955      0.58220509   
      4000   285.7942      -211078.3       16.586868     -211061.71      1394.6332      6576.4726      0.58161397   
      4010   296.31691     -211078.76      17.197583     -211061.56      1033.5348      6583.5463      0.58098906   
      4020   296.07202     -211078.59      17.18337      -211061.41      3433.6615      6591.5118      0.58028697   
      4030   291.38814     -211078.16      16.911528     -211061.25      1558.464       6601.5059      0.57940846   
      4040   304.68704     -211078.76      17.683367     -211061.08     -1377.8539      6612.3019      0.57846245   
      4050   304.23892     -211078.55      17.657359     -211060.9      -1821.0873      6622.2884      0.57759012   
      4060   299.9018      -211078.14      17.405642     -211060.73     -525.48447      6630.8045      0.57684831   
      4070   318.00044     -211079.07      18.456048     -211060.61      997.36978      6638.9286      0.57614242   
      4080   317.40294     -211078.93      18.42137      -211060.51      348.39677      6647.3243      0.57541473   
      4090   322.99274     -211079.2       18.74579      -211060.45      70.49148       6655.8931      0.57467395   
      4100   314.0626      -211078.64      18.227504     -211060.41     -457.64673      6664.3728      0.57394274   
      4110   297.36995     -211077.65      17.258699     -211060.39     -627.96911      6672.3667      0.57325512   
      4120   314.51412     -211078.63      18.253709     -211060.37     -1274.1115      6679.7962      0.57261753   
      4130   304.16475     -211078.03      17.653055     -211060.38      1547.5715      6686.3664      0.57205485   
      4140   299.8725      -211077.8       17.403942     -211060.4       1233.7664      6693.6787      0.57142994   
      4150   311.53616     -211078.51      18.080875     -211060.43      2959.7286      6701.9483      0.57072484   
      4160   303.71567     -211078.1       17.626991     -211060.47     -619.94045      6711.7213      0.5698938    
      4170   313.42833     -211078.7       18.190693     -211060.51      758.49928      6721.4431      0.56906952   
      4180   305.96642     -211078.3       17.757619     -211060.54     -2984.7119      6731.0918      0.56825378   
      4190   309.42423     -211078.54      17.958303     -211060.58     -222.87283      6739.1229      0.56757658   
      4200   306.497       -211078.42      17.788413     -211060.63     -118.68962      6746.5773      0.56694946   
      4210   309.76254     -211078.67      17.977938     -211060.7       2344.2455      6754.1021      0.56631782   
      4220   292.21464     -211077.75      16.959497     -211060.79      618.5985       6762.7861      0.56559062   
      4230   293.61889     -211077.91      17.040996     -211060.87     -1334.8456      6771.6989      0.5648462    
      4240   307.67337     -211078.81      17.856687     -211060.96     -1666.9262      6779.5373      0.56419313   
      4250   280.98984     -211077.36      16.308034     -211061.05     -1030.3857      6786.0471      0.5636519    
      4260   288.05417     -211077.85      16.718032     -211061.13     -238.22638      6791.6766      0.56318471   
      4270   303.83257     -211078.85      17.633775     -211061.21     -843.66186      6796.9601      0.56274692   
      4280   300.96833     -211078.77      17.467541     -211061.31      1194.574       6801.7358      0.56235181   
      4290   301.02689     -211078.87      17.47094      -211061.4       411.83895      6807.2462      0.56189658   
      4300   308.76651     -211079.41      17.920131     -211061.49      475.98769      6813.1672      0.56140826   
      4310   304.92083     -211079.29      17.696936     -211061.59     -480.95647      6819.4332      0.56089242   
      4320   283.66272     -211078.14      16.463162     -211061.67      219.68557      6825.5175      0.56039244   
      4330   285.51301     -211078.34      16.570548     -211061.77     -1186.0338      6831.4191      0.55990832   
      4340   275.72177     -211077.86      16.002286     -211061.86      896.74511      6836.6404      0.5594807    
      4350   281.1496      -211078.28      16.317306     -211061.96      484.9838       6841.9405      0.5590473    
      4360   288.99171     -211078.86      16.772444     -211062.09      1652.9805      6847.6594      0.55858041   
      4370   283.88375     -211078.7       16.47599      -211062.23     -691.73605      6854.0165      0.55806233   
      4380   285.38525     -211078.91      16.563133     -211062.35     -1084.992       6860.0748      0.55756948   
      4390   292.05631     -211079.42      16.950307     -211062.47     -1573.8762      6865.2116      0.55715229   
      4400   277.83473     -211078.72      16.124918     -211062.59     -1632.7604      6869.2493      0.5568248    
      4410   270.9879      -211078.42      15.727543     -211062.69     -1472.1575      6872.1114      0.5565929    
      4420   283.18844     -211079.23      16.435636     -211062.79     -1375.5536      6873.7177      0.55646282   
      4430   284.95078     -211079.43      16.537918     -211062.9       892.06439      6874.503       0.55639926   
      4440   281.04441     -211079.31      16.311201     -211063        -80.758592      6875.4973      0.5563188    
      4450   279.89391     -211079.34      16.244428     -211063.09      1021.9726      6876.7168      0.55622014   
      4460   283.76388     -211079.65      16.469033     -211063.18     -2540.9876      6878.1311      0.55610577   
      4470   266.518       -211078.7       15.46812      -211063.23     -233.76374      6878.2311      0.55609768   
      4480   272.55056     -211079.09      15.818237     -211063.27     -1987.5514      6877.6941      0.5561411    
      4490   279.96758     -211079.54      16.248704     -211063.29      1910.0331      6876.2665      0.55625656   
      4500   277.74738     -211079.38      16.119849     -211063.26      659.34774      6875.8707      0.55628859   
      4510   277.70863     -211079.33      16.117599     -211063.22      1401.8613      6876.2589      0.55625718   
      4520   273.05572     -211078.98      15.847555     -211063.13     -1747.3065      6877.3708      0.55616725   
      4530   280.00991     -211079.26      16.251161     -211063.01     -1320.9029      6877.4546      0.55616047   
      4540   261.82229     -211078.04      15.195591     -211062.85     -470.03617      6876.5061      0.55623718   
      4550   279.94247     -211078.91      16.247246     -211062.67     -1407.4576      6874.9949      0.55635945   
      4560   276.81716     -211078.5       16.06586      -211062.43     -380.70278      6872.6041      0.55655299   
      4570   286.1081      -211078.8       16.605086     -211062.2      -1169.5537      6869.7546      0.55678385   
      4580   303.22156     -211079.55      17.598314     -211061.95      1708.6518      6866.495       0.55704816   
      4590   287.02424     -211078.38      16.658257     -211061.72     -1119.1837      6864.0783      0.55724428   
      4600   298.33179     -211078.85      17.314523     -211061.54      882.77894      6861.3668      0.55746449   
      4610   298.58537     -211078.7       17.329239     -211061.37     -1830.6018      6858.8307      0.55767062   
      4620   304.17401     -211078.9       17.653592     -211061.24      154.94947      6855.3973      0.55794992   
      4630   294.18328     -211078.22      17.073752     -211061.14     -992.64216      6851.7286      0.55824867   
      4640   312.90645     -211079.22      18.160404     -211061.06      282.75513      6847.6324      0.55858261   
      4650   311.82469     -211079.08      18.097621     -211060.98      1689.1289      6843.8785      0.55888899   
      4660   295.66069     -211078.08      17.159498     -211060.92     -268.45723      6841.1974      0.55910803   
      4670   316.28482     -211079.22      18.356477     -211060.87      995.86573      6838.7737      0.55930618   
      4680   294.3397      -211077.89      17.08283      -211060.81     -2305.8565      6836.6232      0.55948211   
      4690   305.58477     -211078.51      17.735469     -211060.78      862.58939      6833.4468      0.55974218   
      4700   300.37789     -211078.18      17.433273     -211060.75     -3415.9319      6830.0816      0.56001796   
      4710   302.18352     -211078.27      17.538068     -211060.73      1892.695       6825.1107      0.56042584   
      4720   308.55596     -211078.62      17.907911     -211060.71      104.34418      6820.8209      0.56077831   
      4730   325.28808     -211079.59      18.879006     -211060.71      2571.2863      6817.1866      0.56107726   
      4740   309.59725     -211078.68      17.968345     -211060.71     -506.37834      6815.0118      0.56125631   
      4750   313.08271     -211078.92      18.170633     -211060.75     -1945.9899      6812.6921      0.56144742   
      4760   304.63495     -211078.48      17.680344     -211060.8      -977.94225      6809.1171      0.56174219   
      4770   302.35308     -211078.4       17.547909     -211060.85     -1017.7971      6804.7501      0.5621027    
      4780   300.81217     -211078.36      17.458478     -211060.91      2941.2695      6800.0796      0.56248877   
      4790   290.92528     -211077.84      16.884665     -211060.95      246.61846      6797.0481      0.56273964   
      4800   289.34119     -211077.79      16.792727     -211061         2327.2857      6794.7585      0.56292926   
      4810   283.40783     -211077.48      16.448369     -211061.04     -2406.6134      6793.4934      0.56303409   
      4820   297.19989     -211078.33      17.248829     -211061.08     -1030.9568      6791.0498      0.56323669   
      4830   289.06076     -211077.88      16.776452     -211061.11     -1995.9836      6787.4914      0.56353197   
      4840   295.55843     -211078.29      17.153563     -211061.13      512.72032      6782.9301      0.56391092   
      4850   302.53876     -211078.7       17.558685     -211061.14      345.55201      6778.5467      0.56427558   
      4860   284.10466     -211077.63      16.488811     -211061.14      359.13827      6774.6059      0.56460382   
      4870   298.70497     -211078.47      17.336181     -211061.13      1510.3722      6771.1077      0.56489551   
      4880   279.2937      -211077.31      16.209593     -211061.1      -1794.7829      6768.3265      0.56512764   
      4890   293.03284     -211078.08      17.006983     -211061.07      815.07316      6764.8298      0.56541975   
      4900   300.53151     -211078.47      17.442189     -211061.03     -2317.7827      6761.2365      0.56572025   
      4910   298.04837     -211078.29      17.298073     -211060.99      3218.671       6756.843       0.56608809   
      4920   289.54926     -211077.73      16.804804     -211060.93     -90.008984      6753.9274      0.56633247   
      4930   289.3467      -211077.65      16.793048     -211060.86      2755.2385      6751.6909      0.56652007   
      4940   302.29001     -211078.3       17.544249     -211060.76      314.91181      6750.9909      0.5665788    
      4950   292.10943     -211077.6       16.95339      -211060.65      498.76069      6750.8385      0.5665916    
      4960   301.61204     -211078.02      17.504901     -211060.51      470.66708      6751.1779      0.56656311   
      4970   302.95803     -211077.93      17.583019     -211060.35     -2558.35        6751.5335      0.56653328   
      4980   320.25002     -211078.76      18.586608     -211060.18      1526.9828      6750.8087      0.5665941    
      4990   305.31686     -211077.73      17.719921     -211060.01     -2665.3965      6750.3027      0.56663657   
      5000   305.13085     -211077.57      17.709125     -211059.86      2316.6401      6748.8095      0.56676194   
      5010   312.63542     -211077.86      18.144673     -211059.72     -2344.3095      6747.9839      0.56683128   
      5020   310.99581     -211077.65      18.049514     -211059.6       1803.3124      6746.2761      0.56697478   
      5030   316.09102     -211077.83      18.345229     -211059.49     -2203.3277      6745.1518      0.56706928   
      5040   306.55365     -211077.19      17.791701     -211059.4      -1170.6127      6742.8311      0.56726445   
      5050   330.66855     -211078.53      19.191277     -211059.33     -1393.9335      6739.6334      0.56753359   
      5060   330.13974     -211078.45      19.160586     -211059.29     -934.46877      6735.4268      0.56788804   
      5070   322.07275     -211077.96      18.692395     -211059.27      1682.6431      6730.8941      0.56827047   
      5080   314.19394     -211077.52      18.235126     -211059.29      756.2557       6727.212       0.56858151   
      5090   318.75735     -211077.82      18.499977     -211059.32      3515.2283      6724.5237      0.56880882   
      5100   318.75814     -211077.88      18.500023     -211059.38     -496.83957      6723.8459      0.56886615   
      5110   317.04495     -211077.87      18.400593     -211059.47      239.46263      6723.2419      0.56891726   
      5120   304.26073     -211077.23      17.658625     -211059.57     -3281.5879      6722.4875      0.56898111   
      5130   318.14436     -211078.16      18.464401     -211059.69      1070.4997      6720.0309      0.56918911   
      5140   321.56894     -211078.5       18.663155     -211059.84     -1629.9912      6717.7642      0.56938116   
      5150   307.1206      -211077.84      17.824605     -211060.02      3410.2187      6715.0133      0.56961441   
      5160   303.78874     -211077.85      17.631232     -211060.22      368.16297      6713.9618      0.56970363   
      5170   304.88245     -211078.11      17.694708     -211060.42      1927.6547      6713.719       0.56972423   
      5180   304.94728     -211078.32      17.698471     -211060.63     -2508.0363      6714.2297      0.5696809    
      5190   306.55077     -211078.63      17.791534     -211060.84     -3412.6934      6713.3193      0.56975815   
      5200   297.71671     -211078.29      17.278825     -211061.01     -892.84315      6710.1492      0.57002732   
      5210   300.17274     -211078.59      17.421367     -211061.17     -549.79327      6706.1818      0.57036455   
      5220   301.04053     -211078.77      17.471731     -211061.29      4114.8744      6702.288       0.57069592   
      5230   300.46673     -211078.82      17.438429     -211061.38      424.54129      6700.6175      0.57083819   
      5240   295.91428     -211078.64      17.174215     -211061.47      2794.8021      6699.9373      0.57089615   
      5250   296.47053     -211078.73      17.206499     -211061.53     -3617.7521      6700.3951      0.57085714   
      5260   296.18963     -211078.76      17.190196     -211061.57     -2618.8659      6698.9638      0.5709791    
      5270   294.86334     -211078.72      17.113221     -211061.61     -2665.5325      6695.4747      0.57127666   
      5280   300.85249     -211079.09      17.460818     -211061.63      126.04132      6690.3535      0.57171395   
      5290   286.74237     -211078.28      16.641898     -211061.64      2921.5039      6685.435       0.57213455   
      5300   292.26385     -211078.6       16.962353     -211061.63      135.93968      6682.1253      0.57241794   
      5310   291.60965     -211078.55      16.924384     -211061.63      1210.9509      6679.3867      0.57265263   
      5320   280.87299     -211077.92      16.301252     -211061.62     -3024.4743      6676.9054      0.57286545   
      5330   290.52083     -211078.46      16.861191     -211061.6      -1198.7371      6672.8822      0.57321083   
      5340   282.47958     -211077.96      16.394495     -211061.56     -1748.5815      6667.7017      0.5736562    
      5350   295.84913     -211078.67      17.170434     -211061.5       1973.2774      6661.7353      0.57416997   
      5360   279.59613     -211077.66      16.227146     -211061.43      2795.1235      6657.0146      0.57457713   
      5370   273.81649     -211077.23      15.891708     -211061.34      1854.1704      6654.1418      0.57482519   
      5380   285.28286     -211077.79      16.557191     -211061.23      1209.3373      6652.7062      0.57494924   
      5390   284.64542     -211077.63      16.520195     -211061.11     -580.18907      6651.8983      0.57501907   
      5400   298.30082     -211078.29      17.312725     -211060.97     -449.44651      6650.9499      0.57510106   
      5410   297.30239     -211078.09      17.254778     -211060.83     -1743.8524      6649.5046      0.57522607   
      5420   306.43551     -211078.48      17.784844     -211060.7      -128.80133      6647.1536      0.57542952   
      5430   308.28812     -211078.45      17.892366     -211060.56      41.205106      6644.7137      0.57564081   
      5440   296.83838     -211077.66      17.227848     -211060.43      546.47456      6642.374       0.57584357   
      5450   294.12036     -211077.38      17.0701       -211060.31      834.27791      6640.5437      0.57600229   
      5460   308.74122     -211078.1       17.918663     -211060.19      755.44749      6639.2324      0.57611606   
      5470   309.20693     -211078.02      17.945691     -211060.08     -397.86134      6638.4077      0.57618762   
      5480   303.32276     -211077.6       17.604187     -211060        -1486.2295      6637.2174      0.57629096   
      5490   301.23257     -211077.42      17.482877     -211059.93     -1729.8486      6634.9806      0.57648524   
      5500   313.08505     -211078.05      18.170769     -211059.88      419.18285      6631.6529      0.57677452   
      5510   315.00682     -211078.13      18.282304     -211059.85      1741.5005      6628.4851      0.57705016   
      5520   307.96169     -211077.71      17.87342      -211059.83      3319.4243      6626.6376      0.57721104   
      5530   321.11304     -211078.47      18.636696     -211059.84      1710.4401      6626.7998      0.57719692   
      5540   320.52589     -211078.47      18.602619     -211059.87      1028.4786      6628.3713      0.57706007   
      5550   326.44606     -211078.87      18.946213     -211059.93     -3027.3285      6630.3014      0.57689208   
      5560   323.41851     -211078.77      18.7705       -211060        -3545.6329      6630.4648      0.57687786   
      5570   321.53077     -211078.78      18.66094      -211060.12     -2201.4186      6628.1903      0.57707583   
      5580   308.25653     -211078.12      17.890532     -211060.23      1794.3781      6624.6903      0.57738071   
      5590   310.62551     -211078.38      18.028023     -211060.35      3009.3495      6622.2605      0.57759256   
      5600   316.34403     -211078.85      18.359913     -211060.49      1857.6532      6621.8702      0.5776266    
      5610   288.59092     -211077.37      16.749184     -211060.62      966.3182       6622.875       0.57753896   
      5620   301.1261      -211078.22      17.476698     -211060.74     -2986.2111      6624.2426      0.57741973   
      5630   295.82573     -211078.03      17.169076     -211060.86     -1738.2267      6623.8942      0.5774501    
      5640   294.81182     -211078.08      17.110231     -211060.97     -1135.6485      6622.0822      0.57760811   
      5650   290.88485     -211077.94      16.882318     -211061.06      3578.1786      6619.8709      0.57780105   
      5660   287.56548     -211077.83      16.68967      -211061.14      3280.852       6619.6875      0.57781706   
      5670   290.45677     -211078.06      16.857473     -211061.2       3836.3464      6622.0383      0.57761194   
      5680   302.87993     -211078.82      17.578487     -211061.24      544.56448      6626.7372      0.57720237   
      5690   301.59605     -211078.78      17.503973     -211061.27     -1159.806       6632.0411      0.57674075   
      5700   282.71599     -211077.7       16.408216     -211061.29     -2268.5315      6636.5044      0.57635288   
      5710   295.19211     -211078.43      17.132302     -211061.29     -2047.3602      6639.4509      0.57609709   
      5720   308.88096     -211079.22      17.926773     -211061.3       1314.9284      6641.1472      0.57594995   
      5730   287.46208     -211077.99      16.683668     -211061.31      2288.5744      6643.5387      0.57574262   
      5740   282.53063     -211077.71      16.397457     -211061.31      2938.6931      6647.5834      0.57539232   
      5750   303.98436     -211078.95      17.642585     -211061.3      -1240.5768      6653.2713      0.57490041   
      5760   302.4756      -211078.85      17.55502      -211061.29     -845.95777      6658.4906      0.57444976   
      5770   302.89382     -211078.85      17.579293     -211061.27     -3303.3647      6662.8056      0.57407774   
      5780   320.67196     -211079.87      18.611097     -211061.26     -1703.0738      6665.2217      0.57386964   
      5790   319.24971     -211079.8       18.528552     -211061.27     -653.32621      6666.3201      0.57377509   
      5800   300.37165     -211078.72      17.432911     -211061.29      2587.8926      6667.2512      0.57369496   
      5810   305.54007     -211079.05      17.732875     -211061.31      2513.9076      6669.775       0.57347787   
      5820   284.24158     -211077.84      16.496757     -211061.34      1991.4753      6674.0336      0.57311195   
      5830   289.21347     -211078.14      16.785315     -211061.36      1618.324       6679.6721      0.57262817   
      5840   300.00921     -211078.78      17.411876     -211061.37     -1616.9577      6686.0853      0.5720789    
      5850   297.26903     -211078.64      17.252842     -211061.39     -634.78418      6691.6066      0.57160688   
      5860   283.6421      -211077.86      16.461965     -211061.4      -1917.8113      6696.2935      0.5712068    
      5870   304.49452     -211079.08      17.672193     -211061.41      2577.1297      6700.1395      0.57087892   
      5880   303.68835     -211079.04      17.625405     -211061.42     -232.84132      6705.1629      0.57045123   
      5890   286.85002     -211078.07      16.648146     -211061.42      3320.0084      6710.6956      0.56998091   
      5900   294.76775     -211078.52      17.107673     -211061.41     -1567.3719      6717.8394      0.56937478   
      5910   307.42366     -211079.24      17.842195     -211061.39      306.69152      6724.5494      0.56880665   
      5920   295.58517     -211078.53      17.155115     -211061.37     -3514.2308      6730.8369      0.56827531   
      5930   310.41686     -211079.37      18.015913     -211061.36     -1308.8088      6735.132       0.5679129    
      5940   316.9347      -211079.75      18.394194     -211061.36     -1132.0081      6738.162       0.56765753   
      5950   303.81771     -211079         17.632913     -211061.37      1867.0127      6740.6705      0.56744627   
      5960   312.37321     -211079.53      18.129456     -211061.4       3191.486       6744.4195      0.56713085   
      5970   308.01189     -211079.32      17.876334     -211061.44      250.7971       6750.176       0.56664721   
      5980   296.81539     -211078.71      17.226514     -211061.49      1835.6922      6756.5939      0.56610896   
      5990   281.49386     -211077.86      16.337286     -211061.52     -3428.7673      6763.5977      0.56552275   
      6000   304.73214     -211079.24      17.685985     -211061.55     -442.53775      6768.8394      0.56508482   
Loop time of 3804.21 on 1 procs for 4000 steps with 450 atoms

Performance: 0.045 ns/day, 528.363 hours/ns, 1.051 timesteps/s, 473.160 atom-step/s
99.6% CPU use with 1 MPI tasks x 1 OpenMP threads

MPI task timing breakdown:
Section |  min time  |  avg time  |  max time  |%varavg| %total
---------------------------------------------------------------
Pair    | 3803.4     | 3803.4     | 3803.4     |   0.0 | 99.98
Neigh   | 0.53932    | 0.53932    | 0.53932    |   0.0 |  0.01
Comm    | 0.12928    | 0.12928    | 0.12928    |   0.0 |  0.00
Output  | 0.014666   | 0.014666   | 0.014666   |   0.0 |  0.00
Modify  | 0.11086    | 0.11086    | 0.11086    |   0.0 |  0.00
Other   |            | 0.02533    |            |       |  0.00

Nlocal:            450 ave         450 max         450 min
Histogram: 1 0 0 0 0 0 0 0 0 0
Nghost:           4957 ave        4957 max        4957 min
Histogram: 1 0 0 0 0 0 0 0 0 0
Neighs:              0 ave           0 max           0 min
Histogram: 1 0 0 0 0 0 0 0 0 0
FullNghs:       216480 ave      216480 max      216480 min
Histogram: 1 0 0 0 0 0 0 0 0 0

Total # of neighbors = 216480
Ave neighs/atom = 481.06667
Neighbor list builds = 85
Dangerous builds = 0
System init for write_data ...
Generated 0 of 6 mixed pair_coeff terms from geometric mixing rule
Generated 0 of 6 mixed pair_coeff terms from geometric mixing rule
Setting up Verlet run ...
  Unit style    : metal
  Current step  : 6000
  Time step     : 0.0005
Per MPI rank memory allocation (min/avg/max) = 4.557 | 4.557 | 4.557 Mbytes
   Step          Temp          PotEng         KinEng         TotEng         Press          Volume        Density    
      6000   304.73214     -211079.24      17.685985     -211061.55     -442.53775      6768.8394      0.56508482   
      6010   288.80648     -211078.32      16.761694     -211061.55     -2232.5615      6768.4203      0.56511981   
      6020   291.36925     -211078.47      16.910432     -211061.56      3875.6863      6767.1067      0.56522951   
      6030   296.81272     -211078.77      17.226359     -211061.55      656.55814      6767.7362      0.56517693   
      6040   290.35783     -211078.39      16.851731     -211061.54      1939.6109      6769.3454      0.56504258   
      6050   294.07606     -211078.58      17.067529     -211061.51     -748.85708      6772.0516      0.56481678   
      6060   292.97988     -211078.48      17.003909     -211061.47     -1379.0086      6774.3622      0.56462413   
      6070   297.8046      -211078.72      17.283925     -211061.43     -869.87233      6775.8281      0.56450198   
      6080   294.46817     -211078.45      17.090286     -211061.36     -1751.5206      6776.5086      0.56444529   
      6090   317.26564     -211079.71      18.413401     -211061.3       1513.3301      6776.2828      0.5644641    
      6100   296.82163     -211078.46      17.226876     -211061.23      807.76238      6776.8126      0.56441997   
      6110   283.28261     -211077.61      16.441101     -211061.17      3852.9165      6778.283       0.56429754   
      6120   306.20906     -211078.86      17.771702     -211061.08      145.06374      6782.0494      0.56398415   
      6130   299.40448     -211078.35      17.376779     -211060.98      825.5518       6786.2803      0.56363254   
      6140   289.79832     -211077.68      16.819259     -211060.86     -2192.3839      6790.8202      0.56325573   
      6150   304.21848     -211078.38      17.656173     -211060.72     -2045.3351      6793.9831      0.56299351   
      6160   306.83456     -211078.37      17.808005     -211060.56     -1570.7498      6795.6025      0.56285935   
      6170   300.29162     -211077.82      17.428267     -211060.39      1673.2779      6796.3221      0.56279975   
      6180   297.85371     -211077.5       17.286776     -211060.21      2245.1415      6798.007       0.56266026   
      6190   300.85723     -211077.48      17.461093     -211060.02      598.74195      6801.2944      0.56238829   
      6200   297.36282     -211077.08      17.258285     -211059.82      102.32191      6805.0891      0.56207469   
      6210   312.27388     -211077.73      18.12369      -211059.61     -3827.9784      6808.6963      0.56177692   
      6220   315.058       -211077.7       18.285275     -211059.41     -2094.4507      6809.9349      0.56167473   
      6230   298.98861     -211076.6       17.352642     -211059.25     -2995.7587      6809.2527      0.561731     
      6240   328.37272     -211078.16      19.058032     -211059.1       2379.5284      6806.9412      0.56192176   
      6250   309.50882     -211076.95      17.963213     -211058.99      1408.6725      6805.6928      0.56202484   
      6260   313.25933     -211077.11      18.180884     -211058.93      2325.3495      6805.875       0.56200979   
      6270   313.44718     -211077.06      18.191786     -211058.87     -2617.7533      6807.1802      0.56190203   
      6280   323.64044     -211077.62      18.783381     -211058.84     -2220.8992      6807.1491      0.5619046    
      6290   323.67116     -211077.62      18.785164     -211058.83     -2500.1088      6805.3889      0.56204994   
      6300   315.28061     -211077.14      18.298195     -211058.84     -1520.3344      6801.9141      0.56233706   
      6310   315.03042     -211077.15      18.283674     -211058.87      1073.7769      6797.5405      0.56269887   
      6320   308.3244      -211076.8       17.894471     -211058.91     -850.67994      6793.4666      0.56303632   
      6330   317.90136     -211077.4       18.450297     -211058.95      1163.3045      6789.2242      0.56338814   
      6340   310.87244     -211077.07      18.042354     -211059.03     -2257.5454      6785.1943      0.56372275   
      6350   304.25687     -211076.76      17.658401     -211059.11      608.66533      6780.0928      0.5641469    
      6360   316.77701     -211077.57      18.385042     -211059.18     -2393.3435      6774.8502      0.56458346   
      6370   325.34947     -211078.17      18.882569     -211059.29     -1259.4646      6768.2247      0.56513614   
      6380   303.82568     -211077.02      17.633375     -211059.39     -1114.5893      6760.5575      0.56577706   
      6390   313.90586     -211077.71      18.218407     -211059.49      715.70161      6752.1997      0.56647738   
      6400   314.28103     -211077.83      18.240181     -211059.59      1266.8481      6744.3546      0.56713631   
      6410   303.41905     -211077.3       17.609776     -211059.69     -126.34008      6737.2851      0.56773141   
      6420   310.62343     -211077.8       18.027902     -211059.77      640.27299      6730.3714      0.56831461   
      6430   300.19835     -211077.28      17.422854     -211059.86     -688.05816      6723.7269      0.56887623   
      6440   304.76414     -211077.62      17.687842     -211059.93      27.291602      6716.7734      0.56946515   
      6450   301.58749     -211077.52      17.503476     -211060.02     -3113.5794      6709.475       0.5700846    
      6460   296.98852     -211077.34      17.236562     -211060.1       81.183329      6700.3874      0.57085779   
      6470   300.96228     -211077.62      17.46719      -211060.16      654.16431      6691.0693      0.57165278   
      6480   304.52265     -211077.88      17.673826     -211060.21      3182.3957      6682.4359      0.57239133   
      6490   300.43197     -211077.67      17.436412     -211060.24      1347.8632      6675.7268      0.57296658   
      6500   307.26758     -211078.12      17.833136     -211060.29     -901.45592      6670.0106      0.57345762   
      6510   291.35224     -211077.26      16.909444     -211060.35     -1464.5379      6663.7047      0.57400028   
      6520   295.19828     -211077.53      17.13266      -211060.39     -2383.9354      6656.2774      0.57464077   
      6530   299.52322     -211077.82      17.383671     -211060.44      2306.2247      6647.5744      0.57539309   
      6540   295.61388     -211077.61      17.156781     -211060.45      2687.1789      6640.096       0.57604113   
      6550   312.36647     -211078.6       18.129064     -211060.47      3961.2486      6634.7916      0.57650166   
      6560   292.66037     -211077.48      16.985366     -211060.49     -148.92234      6631.808       0.57676102   
      6570   300.57147     -211077.96      17.444508     -211060.51     -41.290604      6629.2145      0.57698666   
      6580   283.64428     -211076.98      16.462091     -211060.52     -1010.728       6626.3708      0.57723428   
      6590   299.75777     -211077.92      17.397283     -211060.52     -146.03206      6623.0234      0.57752602   
      6600   302.19703     -211078.06      17.538852     -211060.52      969.76644      6619.5153      0.57783209   
      6610   292.85782     -211077.53      16.996825     -211060.53      1695.0453      6616.5661      0.57808965   
      6620   305.40858     -211078.26      17.725244     -211060.53      3063.4206      6614.9632      0.57822973   
      6630   302.15715     -211078.07      17.536538     -211060.53      52.471366      6615.0759      0.57821988   
      6640   311.8571      -211078.65      18.099502     -211060.55     -490.65703      6615.565       0.57817713   
      6650   290.8087      -211077.44      16.877899     -211060.56     -1360.0145      6615.5874      0.57817517   
      6660   302.93874     -211078.16      17.5819       -211060.58     -47.873201      6614.9018      0.57823509   
      6670   304.64776     -211078.27      17.681088     -211060.59      230.33349      6614.09        0.57830606   
      6680   294.50814     -211077.7       17.092606     -211060.6       422.46739      6613.4417      0.57836276   
      6690   300.39721     -211078.05      17.434395     -211060.62      60.124019      6613.1485      0.5783884    
      6700   293.62108     -211077.67      17.041123     -211060.62     -1066.5704      6612.7542      0.57842289   
      6710   306.74747     -211078.44      17.80295      -211060.63     -910.70655      6611.7921      0.57850706   
      6720   299.9446      -211078.05      17.408126     -211060.65     -695.57338      6610.1081      0.57865443   
      6730   301.01272     -211078.13      17.470117     -211060.66     -459.53426      6607.9794      0.57884084   
      6740   301.87009     -211078.21      17.519877     -211060.69     -1399.2854      6605.4214      0.579065     
      6750   308.54414     -211078.64      17.907225     -211060.74     -1432.0995      6601.8828      0.57937539   
      6760   306.49375     -211078.58      17.788224     -211060.79      998.15118      6597.5804      0.57975321   
      6770   292.12224     -211077.82      16.954134     -211060.87      1316.6793      6593.7002      0.58009437   
      6780   310.91206     -211079.01      18.044653     -211060.96      973.617        6590.7835      0.58035109   
      6790   298.3003      -211078.39      17.312694     -211061.08     -467.76777      6588.4049      0.58056061   
      6800   300.39983     -211078.66      17.434547     -211061.22     -829.19531      6585.8037      0.58078992   
      6810   301.81071     -211078.89      17.516431     -211061.37     -429.25571      6582.728       0.58106128   
      6820   294.96589     -211078.65      17.119173     -211061.53     -398.92902      6579.2999      0.58136404   
      6830   298.09059     -211078.99      17.300524     -211061.69      932.93291      6575.7527      0.58167765   
      6840   281.5842      -211078.19      16.342529     -211061.85      1112.5842      6572.6831      0.58194931   
      6850   295.71137     -211079.16      17.162439     -211061.99      1018.2885      6570.4166      0.58215006   
      6860   282.82603     -211078.55      16.414602     -211062.13     -222.77131      6568.6792      0.58230403   
      6870   285.93062     -211078.85      16.594786     -211062.25     -1152.7472      6566.8114      0.58246966   
      6880   285.48651     -211078.93      16.56901      -211062.36     -1302.3936      6564.1424      0.58270649   
      6890   281.28779     -211078.78      16.325326     -211062.45     -243.14494      6560.5887      0.58302213   
      6900   288.55901     -211079.27      16.747331     -211062.52      1591.4516      6556.9278      0.58334764   
      6910   276.73822     -211078.63      16.061279     -211062.56      2134.1043      6554.246       0.58358633   
      6920   295.00308     -211079.71      17.121331     -211062.59      1264.1024      6553.0513      0.58369273   
      6930   283.39856     -211079.04      16.447831     -211062.59     -1091.113       6552.6088      0.58373214   
      6940   282.38301     -211078.98      16.38889      -211062.59     -424.0362       6551.7093      0.58381228   
      6950   292.02306     -211079.5       16.948378     -211062.56      660.48899      6550.4972      0.58392031   
      6960   286.96826     -211079.16      16.655008     -211062.51      1637.8017      6549.8072      0.58398183   
      6970   289.30565     -211079.24      16.790665     -211062.45      308.2771       6550.0664      0.58395872   
      6980   291.06829     -211079.27      16.892965     -211062.38     -1079.9914      6550.5385      0.58391664   
      6990   287.70311     -211078.99      16.697657     -211062.29     -391.57455      6550.388       0.58393005   
      7000   281.83377     -211078.55      16.357014     -211062.2      -554.25186      6549.8237      0.58398036   
      7010   291.10563     -211078.97      16.895132     -211062.08      142.17759      6548.9911      0.5840546    
      7020   286.72303     -211078.58      16.640775     -211061.94      138.21191      6548.1514      0.58412949   
      7030   296.59304     -211079         17.213609     -211061.78     -895.76135      6547.3715      0.58419907   
      7040   295.12162     -211078.75      17.128211     -211061.62     -979.86992      6545.9799      0.58432327   
      7050   281.72506     -211077.81      16.350704     -211061.46     -219.09499      6543.9599      0.58450364   
      7060   287.5624      -211077.98      16.689491     -211061.29      1033.5269      6541.7931      0.58469724   
      7070   311.16954     -211079.18      18.059597     -211061.12      286.56375      6540.1914      0.58484044   
      7080   299.73908     -211078.35      17.396199     -211060.96      1010.3592      6538.949       0.58495156   
      7090   299.1336      -211078.18      17.361057     -211060.82      1119.9435      6538.3507      0.58500508   
      7100   320.11307     -211079.27      18.57866      -211060.69      968.23046      6538.5859      0.58498404   
      7110   293.49925     -211077.63      17.034052     -211060.59      301.81139      6539.4315      0.5849084    
      7120   308.58204     -211078.42      17.909425     -211060.52     -812.63012      6540.4721      0.58481533   
      7130   304.69088     -211078.14      17.68359      -211060.46      189.30039      6541.0619      0.5847626    
      7140   306.53154     -211078.2       17.790418     -211060.41     -585.49873      6541.6325      0.5847116    
      7150   310.27033     -211078.4       18.007409     -211060.39     -868.1374       6541.8544      0.58469176   
      7160   306.53473     -211078.16      17.790603     -211060.37     -1602.8943      6541.4572      0.58472726   
      7170   306.8987      -211078.18      17.811727     -211060.37     -1073.8043      6540.1013      0.58484849   
      7180   310.35621     -211078.37      18.012393     -211060.36     -1272.4708      6538.0009      0.58503638   
      7190   324.191       -211079.18      18.815334     -211060.36     -795.90583      6535.1439      0.58529214   
      7200   289.47274     -211077.17      16.800362     -211060.37     -446.91371      6531.6944      0.58560124   
      7210   310.22911     -211078.4       18.005016     -211060.39     -690.9281       6527.8994      0.58594168   
      7220   312.2565      -211078.55      18.122682     -211060.43     -3025.2714      6523.2987      0.58635493   
      7230   307.97817     -211078.36      17.874377     -211060.48      6.2323498      6516.9563      0.58692558   
      7240   312.43943     -211078.68      18.133299     -211060.55      90.691724      6510.1919      0.58753543   
      7250   315.86039     -211078.96      18.331844     -211060.62      2041.4763      6503.6187      0.58812925   
      7260   307.72437     -211078.58      17.859647     -211060.72     -1013.657       6497.9381      0.5886434    
      7270   305.80084     -211078.57      17.74801      -211060.82      63.650102      6491.8923      0.5891916    
      7280   315.19117     -211079.21      18.293004     -211060.92     -1183.0099      6485.6368      0.58975988   
      7290   301.3495      -211078.53      17.489664     -211061.04     -548.63448      6478.6879      0.59039244   
      7300   300.22842     -211078.56      17.424599     -211061.14      909.39096      6471.394       0.59105788   
      7310   304.17791     -211078.89      17.653818     -211061.24     -301.76023      6464.4209      0.59169544   
      7320   292.22312     -211078.29      16.959989     -211061.33      2752.4725      6457.5523      0.5923248    
      7330   297.72914     -211078.69      17.279546     -211061.41     -1758.1899      6451.8095      0.59285203   
      7340   304.34015     -211079.16      17.663235     -211061.5       891.1793       6445.4547      0.59343655   
      7350   299.01876     -211078.94      17.354392     -211061.59     -2258.5177      6439.0582      0.59402606   
      7360   296.26992     -211078.86      17.194856     -211061.66      2066.1092      6431.7576      0.59470033   
      7370   306.51598     -211079.51      17.789515     -211061.72      427.30323      6425.2348      0.59530406   
      7380   293.2392      -211078.8       17.01896      -211061.78      2642.5513      6419.3217      0.59585242   
      7390   275.9144      -211077.83      16.013466     -211061.82      2233.2562      6414.8971      0.5962634    
      7400   295.77397     -211079.01      17.166072     -211061.84      10.50575       6411.7784      0.59655343   
      7410   289.55224     -211078.66      16.804977     -211061.85      1216.7477      6408.8498      0.59682603   
      7420   281.72536     -211078.22      16.350721     -211061.87      1478.408       6406.5148      0.59704356   
      7430   292.03859     -211078.81      16.949279     -211061.86      4079.5845      6405.3278      0.5971542    
      7440   292.61465     -211078.83      16.982712     -211061.85      1052.5431      6406.3668      0.59705735   
      7450   288.90875     -211078.6       16.76763      -211061.83      1295.9842      6408.4258      0.59686552   
      7460   280.67641     -211078.08      16.289843     -211061.79      187.4108       6411.2368      0.59660383   
      7470   296.20385     -211078.95      17.191021     -211061.75      937.36194      6414.3577      0.59631355   
      7480   280.80233     -211077.99      16.297151     -211061.7       1305.6864      6418.1367      0.59596244   
      7490   298.22964     -211078.94      17.308594     -211061.64      1714.0091      6422.8929      0.59552112   
      7500   295.75347     -211078.73      17.164882     -211061.57      202.46882      6428.7897      0.59497488   
      7510   287.323       -211078.17      16.675596     -211061.49     -55.594431      6435.0581      0.59439531   
      7520   296.36146     -211078.61      17.200169     -211061.41     -1740.6676      6441.2823      0.59382095   
      7530   299.2936      -211078.69      17.370344     -211061.32      663.67148      6446.787       0.5933139    
      7540   289.14415     -211078.04      16.781292     -211061.26      1402.8225      6452.6491      0.59277489   
      7550   285.69136     -211077.78      16.5809       -211061.19      1116.606       6459.5618      0.59214053   
      7560   305.63943     -211078.87      17.738642     -211061.13     -109.90403      6467.2109      0.59144018   
      7570   294.71304     -211078.18      17.104498     -211061.07     -774.09086      6474.9768      0.59073083   
      7580   294.72774     -211078.13      17.105351     -211061.03     -132.23589      6482.4004      0.59005432   
      7590   318.08584     -211079.45      18.461004     -211060.99     -2224.906       6489.5715      0.58940231   
      7600   293.07253     -211077.98      17.009287     -211060.98      2085.2692      6495.894       0.58882863   
      7610   305.00083     -211078.68      17.701579     -211060.97     -95.22065       6503.1795      0.58816897   
      7620   307.75739     -211078.83      17.861564     -211060.97      1300.2523      6511.014       0.58746125   
      7630   306.97332     -211078.78      17.816058     -211060.97     -2093.2559      6519.4703      0.58669926   
      7640   308.14356     -211078.84      17.883976     -211060.95     -1475.7278      6527.1072      0.5860128    
      7650   311.38294     -211079.02      18.071982     -211060.95     -1178.1633      6533.8459      0.58540842   
      7660   315.00219     -211079.24      18.282036     -211060.95     -1410.8125      6539.8746      0.58486876   
      7670   296.0817      -211078.16      17.183932     -211060.98      1757.5485      6545.3357      0.58438078   
      7680   303.51791     -211078.62      17.615513     -211061.01     -592.28283      6551.6562      0.58381701   
      7690   292.18323     -211077.99      16.957673     -211061.03     -203.09109      6557.9908      0.58325309   
      7700   282.26212     -211077.42      16.381874     -211061.04     -1831.7086      6564.0436      0.58271526   
      7710   290.37014     -211077.89      16.852445     -211061.04      635.10905      6569.2693      0.58225173   
      7720   293.50256     -211078.07      17.034244     -211061.03      1670.8698      6574.8568      0.58175691   
      7730   291.47616     -211077.94      16.916636     -211061.02      1952.3346      6581.6453      0.58115687   
      7740   298.65228     -211078.35      17.333123     -211061.02      781.3136       6589.8408      0.58043411   
      7750   301.5276      -211078.5       17.5          -211061        -673.36747      6598.6654      0.57965788   
      7760   293.21353     -211077.99      17.01747      -211060.97      398.47727      6607.4478      0.57888741   
      7770   297.78661     -211078.23      17.282881     -211060.94     -1047.8089      6616.4316      0.5781014    
      7780   298.69985     -211078.25      17.335884     -211060.91      1079.3591      6625.2434      0.57733251   
      7790   297.11089     -211078.11      17.243664     -211060.87      739.90845      6634.7541      0.57650492   
      7800   301.8086      -211078.35      17.516309     -211060.83      1352.65        6645.1524      0.57560281   
      7810   300.89849     -211078.24      17.463488     -211060.78     -915.52315      6656.5356      0.57461848   
      7820   298.1928      -211078.02      17.306455     -211060.72     -1858.0302      6667.6101      0.57366407   
      7830   292.27        -211077.6       16.962709     -211060.64     -2369.7265      6677.6332      0.57280301   
      7840   304.00347     -211078.19      17.643694     -211060.55     -1765.8613      6686.159       0.5720726    
      7850   306.57112     -211078.25      17.792715     -211060.46      1010.0986      6693.7697      0.57142217   
      7860   295.85854     -211077.55      17.17098      -211060.38      1367.2675      6701.9912      0.57072119   
      7870   301.4378      -211077.8       17.494788     -211060.3       535.90358      6711.3475      0.56992554   
      7880   304.16515     -211077.84      17.653078     -211060.19     -2795.018       6720.9617      0.56911028   
      7890   313.46628     -211078.28      18.192895     -211060.08     -976.22462      6729.1805      0.56841518   
      7900   308.85203     -211077.9       17.925094     -211059.97     -539.4286       6736.6822      0.56778222   
      7910   315.82848     -211078.2       18.329992     -211059.87      1972.5141      6744.2128      0.56714824   
      7920   312.77838     -211077.91      18.152971     -211059.76      276.58318      6753.0217      0.56640843   
      7930   302.87854     -211077.23      17.578406     -211059.65      736.95327      6762.4254      0.56562079   
      7940   326.76005     -211078.51      18.964436     -211059.55     -1284.9422      6772.3286      0.56479368   
      7950   311.62482     -211077.53      18.086021     -211059.45     -94.33071       6781.666       0.56401603   
      7960   315.04675     -211077.66      18.284622     -211059.37     -522.53651      6790.9621      0.56324396   
      7970   326.0661      -211078.23      18.924161     -211059.3      -625.35362      6800.0339      0.56249254   
      7980   313.43248     -211077.45      18.190933     -211059.26     -753.48426      6808.8248      0.56176631   
      7990   313.10465     -211077.39      18.171907     -211059.22     -1029.9055      6817.1902      0.56107696   
      8000   321.20541     -211077.85      18.642057     -211059.2      -152.65321      6825.056       0.56043033   
Loop time of 1837.33 on 1 procs for 2000 steps with 450 atoms

Performance: 0.047 ns/day, 510.369 hours/ns, 1.089 timesteps/s, 489.842 atom-step/s
99.6% CPU use with 1 MPI tasks x 1 OpenMP threads

MPI task timing breakdown:
Section |  min time  |  avg time  |  max time  |%varavg| %total
---------------------------------------------------------------
Pair    | 1837       | 1837       | 1837       |   0.0 | 99.98
Neigh   | 0.21111    | 0.21111    | 0.21111    |   0.0 |  0.01
Comm    | 0.063293   | 0.063293   | 0.063293   |   0.0 |  0.00
Output  | 0.027225   | 0.027225   | 0.027225   |   0.0 |  0.00
Modify  | 0.055514   | 0.055514   | 0.055514   |   0.0 |  0.00
Other   |            | 0.01227    |            |       |  0.00

Nlocal:            450 ave         450 max         450 min
Histogram: 1 0 0 0 0 0 0 0 0 0
Nghost:           4938 ave        4938 max        4938 min
Histogram: 1 0 0 0 0 0 0 0 0 0
Neighs:              0 ave           0 max           0 min
Histogram: 1 0 0 0 0 0 0 0 0 0
FullNghs:       214604 ave      214604 max      214604 min
Histogram: 1 0 0 0 0 0 0 0 0 0

Total # of neighbors = 214604
Ave neighs/atom = 476.89778
Neighbor list builds = 38
Dangerous builds = 0
System init for write_data ...
Generated 0 of 6 mixed pair_coeff terms from geometric mixing rule
Total wall time: 2:13:51
Job ended at Fri Sep 11 16:06:22 MDT 2026
